@relation estudiantes

@attribute Documento numeric
@attribute ID_Estudiante numeric
@attribute Edad numeric
@attribute Género {Masculino, Femenino, Otro}
@attribute Horas_Estudio_Semanal numeric
@attribute Asistencia numeric
@attribute Promedio_Parciales numeric
@attribute Participación_Clases {Baja, Media, Alta}
@attribute Uso_Plataforma_Virtual {Bajo, Medio, Alto}
@attribute Antecedentes_Pérdida {Sí, No}
@attribute Apoyo_Familiar {Bajo, Medio, Alto}
@attribute Carga_Académica numeric
@attribute Problemas_Personales {Ninguno, Leves, Graves}
@attribute Perderá_Asignatura {tested_positive, tested_negative}

@data
91503778,1,17,Otro,7,93.66,3.79,Baja,Medio,No,Medio,2,Ninguno,tested_negative
37742372,2,12,Masculino,8,88.97,2.91,Alta,Bajo,Sí,Bajo,5,Graves,tested_positive
20044405,3,13,Femenino,21,85.43,3.5,Baja,Alto,Sí,Medio,5,Ninguno,tested_negative
43070558,4,16,Femenino,11,86.01,3.68,Alta,Medio,No,Bajo,2,Ninguno,tested_negative
16392294,5,12,Femenino,10,100.0,3.38,Baja,Alto,Sí,Alto,5,Leves,tested_negative
41991492,6,14,Otro,2,75.33,1.81,Baja,Medio,No,Medio,4,Graves,tested_positive
41672561,7,17,Otro,7,92.2,3.4,Baja,Medio,Sí,Bajo,4,Ninguno,tested_negative
43757740,8,14,Femenino,22,93.3,3.32,Alta,Alto,No,Alto,4,Leves,tested_negative
49052020,9,13,Masculino,23,91.16,3.99,Media,Bajo,Sí,Medio,3,Ninguno,tested_negative
36539369,10,10,Otro,10,69.76,3.62,Media,Medio,No,Medio,3,Graves,tested_negative
10098719,11,15,Otro,10,65.54,2.94,Baja,Alto,No,Bajo,1,Leves,tested_negative
93885417,12,18,Femenino,6,82.85,3.59,Baja,Medio,Sí,Alto,5,Graves,tested_negative
91417891,13,14,Otro,19,96.59,3.81,Alta,Medio,No,Bajo,1,Leves,tested_negative
84359514,14,18,Otro,12,85.94,3.0,Media,Medio,Sí,Medio,4,Graves,tested_negative
23849693,15,11,Femenino,4,86.31,2.32,Media,Alto,Sí,Alto,1,Ninguno,tested_negative
67260670,16,14,Otro,22,90.11,3.21,Baja,Alto,No,Medio,1,Ninguno,tested_negative
81391746,17,10,Masculino,16,88.93,3.81,Baja,Alto,No,Alto,4,Leves,tested_negative
86395231,18,12,Otro,8,84.79,3.37,Alta,Medio,Sí,Alto,3,Leves,tested_negative
71855839,19,16,Otro,8,87.11,2.75,Media,Bajo,Sí,Medio,3,Ninguno,tested_negative
39832892,20,17,Otro,12,76.78,3.14,Baja,Bajo,No,Bajo,5,Leves,tested_negative
48581932,21,17,Masculino,12,100.0,3.71,Alta,Bajo,Sí,Medio,1,Leves,tested_negative
99975676,22,18,Femenino,5,98.89,3.89,Baja,Medio,No,Medio,3,Graves,tested_negative
99868095,23,16,Femenino,23,90.22,4.04,Baja,Bajo,No,Bajo,1,Leves,tested_negative
43155591,24,18,Otro,2,78.81,2.97,Media,Medio,No,Alto,4,Graves,tested_negative
85240663,25,16,Masculino,10,73.53,3.16,Media,Medio,Sí,Alto,4,Leves,tested_negative
61290368,26,11,Femenino,16,76.51,3.61,Alta,Medio,Sí,Medio,1,Ninguno,tested_negative
63582677,27,10,Masculino,10,92.13,3.19,Media,Alto,No,Medio,5,Graves,tested_negative
90933786,28,13,Masculino,8,90.92,2.85,Baja,Bajo,Sí,Medio,5,Ninguno,tested_positive
32874617,29,13,Otro,3,78.33,2.92,Media,Medio,No,Medio,3,Ninguno,tested_negative
41651334,30,14,Femenino,8,80.55,2.76,Baja,Medio,No,Medio,2,Ninguno,tested_negative
35373365,31,10,Femenino,10,91.65,3.26,Alta,Medio,Sí,Alto,1,Leves,tested_negative
75235956,32,10,Femenino,12,84.63,3.62,Baja,Medio,No,Medio,3,Graves,tested_negative
37612862,33,17,Femenino,7,92.29,4.01,Baja,Alto,Sí,Medio,2,Leves,tested_negative
26040897,34,18,Femenino,11,82.02,3.57,Alta,Bajo,No,Medio,2,Ninguno,tested_negative
85222073,35,15,Masculino,15,86.01,3.15,Media,Medio,Sí,Medio,2,Graves,tested_negative
92434548,36,17,Femenino,18,93.79,3.82,Media,Medio,No,Medio,5,Ninguno,tested_negative
52431848,37,13,Otro,6,100.0,3.83,Alta,Medio,Sí,Bajo,1,Graves,tested_negative
16308857,38,14,Masculino,16,86.25,2.53,Media,Bajo,No,Alto,4,Graves,tested_negative
38379213,39,18,Femenino,7,72.56,3.16,Baja,Bajo,No,Medio,2,Ninguno,tested_negative
93499098,40,17,Masculino,5,81.44,3.36,Alta,Medio,Sí,Alto,5,Leves,tested_negative
23751519,41,13,Femenino,17,98.44,4.0,Alta,Bajo,Sí,Alto,4,Ninguno,tested_negative
89985253,42,10,Otro,19,68.66,3.29,Alta,Alto,No,Medio,4,Graves,tested_negative
18556605,43,12,Masculino,12,77.26,3.26,Baja,Bajo,No,Medio,3,Graves,tested_negative
47238083,44,15,Masculino,9,74.42,3.27,Media,Alto,Sí,Medio,1,Leves,tested_negative
56702588,45,11,Otro,15,91.96,3.16,Media,Bajo,No,Alto,4,Graves,tested_negative
93765595,46,13,Otro,4,96.97,3.42,Baja,Alto,Sí,Medio,1,Leves,tested_negative
49087977,47,15,Masculino,16,77.79,2.42,Media,Medio,Sí,Alto,5,Ninguno,tested_negative
19370143,48,17,Otro,14,93.3,3.1,Media,Alto,No,Medio,3,Graves,tested_negative
89327259,49,15,Femenino,8,92.8,4.05,Baja,Medio,Sí,Alto,5,Leves,tested_negative
71802136,50,10,Femenino,10,87.62,3.2,Baja,Bajo,Sí,Medio,1,Leves,tested_negative
89478378,51,13,Otro,3,73.35,3.28,Baja,Medio,Sí,Medio,2,Graves,tested_negative
48932433,52,10,Masculino,3,98.46,3.72,Baja,Medio,No,Bajo,5,Leves,tested_negative
52658261,53,16,Masculino,17,94.66,4.6,Media,Medio,Sí,Alto,5,Ninguno,tested_negative
18905876,54,18,Femenino,6,79.13,3.74,Media,Medio,No,Medio,5,Ninguno,tested_negative
26732986,55,11,Masculino,19,72.09,3.11,Media,Alto,Sí,Alto,3,Graves,tested_negative
87004096,56,14,Masculino,6,87.47,2.8,Media,Bajo,Sí,Medio,4,Ninguno,tested_positive
40010719,57,16,Masculino,5,92.25,3.34,Alta,Bajo,Sí,Medio,5,Leves,tested_negative
63322266,58,18,Otro,6,97.74,3.59,Baja,Medio,Sí,Medio,2,Ninguno,tested_negative
44255239,59,14,Femenino,10,96.84,4.17,Alta,Bajo,No,Alto,4,Graves,tested_negative
25458960,60,12,Masculino,12,88.6,3.43,Baja,Alto,No,Medio,1,Ninguno,tested_negative
67533398,61,10,Masculino,4,81.56,3.22,Media,Alto,No,Medio,5,Ninguno,tested_negative
52395683,62,11,Otro,5,91.24,3.62,Baja,Bajo,No,Medio,5,Ninguno,tested_negative
11343132,63,10,Masculino,9,100.0,3.91,Media,Alto,No,Medio,1,Graves,tested_negative
97714138,64,10,Femenino,16,79.16,2.94,Media,Alto,No,Bajo,1,Leves,tested_negative
19465744,65,13,Otro,5,81.43,4.19,Alta,Alto,No,Bajo,5,Leves,tested_negative
28293653,66,11,Femenino,8,69.85,3.37,Baja,Medio,No,Bajo,3,Ninguno,tested_negative
42783091,67,12,Otro,10,99.45,3.45,Baja,Bajo,Sí,Bajo,3,Graves,tested_negative
87709037,68,17,Otro,10,89.38,2.3,Alta,Bajo,No,Alto,3,Ninguno,tested_negative
13501502,69,10,Otro,4,74.69,2.81,Alta,Alto,No,Medio,1,Leves,tested_negative
80669327,70,10,Otro,8,89.27,2.96,Alta,Medio,Sí,Alto,5,Leves,tested_negative
68488392,71,16,Femenino,6,99.32,3.86,Media,Alto,No,Medio,2,Graves,tested_negative
17520921,72,15,Masculino,25,88.54,3.52,Alta,Alto,No,Medio,5,Graves,tested_negative
25046899,73,17,Otro,11,81.45,3.68,Baja,Medio,No,Bajo,1,Leves,tested_negative
71755808,74,10,Masculino,19,84.85,3.59,Media,Medio,No,Bajo,5,Ninguno,tested_negative
37972190,75,17,Femenino,5,82.01,2.84,Media,Medio,Sí,Bajo,1,Ninguno,tested_positive
47388563,76,14,Masculino,4,90.71,2.61,Baja,Bajo,Sí,Alto,1,Leves,tested_positive
84411157,77,15,Femenino,12,86.22,3.23,Baja,Bajo,Sí,Bajo,2,Graves,tested_negative
14961497,78,17,Femenino,6,93.0,3.13,Alta,Alto,No,Bajo,1,Leves,tested_negative
64670952,79,12,Femenino,17,70.74,2.76,Baja,Alto,Sí,Bajo,5,Graves,tested_positive
59872235,80,10,Femenino,14,88.64,3.5,Alta,Bajo,No,Bajo,1,Ninguno,tested_negative
39940988,81,18,Otro,10,100.0,3.48,Alta,Bajo,No,Bajo,4,Ninguno,tested_negative
28862261,82,12,Otro,14,100.0,3.75,Media,Bajo,Sí,Bajo,5,Graves,tested_negative
35508194,83,11,Masculino,14,91.34,3.55,Alta,Medio,Sí,Bajo,1,Ninguno,tested_negative
44694695,84,17,Masculino,16,92.18,4.15,Baja,Bajo,Sí,Alto,5,Graves,tested_negative
36276524,85,11,Otro,7,76.36,3.34,Alta,Bajo,No,Medio,5,Ninguno,tested_negative
69842166,86,15,Femenino,5,69.43,2.55,Media,Alto,No,Alto,3,Ninguno,tested_negative
29230662,87,14,Otro,10,72.96,2.84,Alta,Medio,No,Alto,3,Ninguno,tested_negative
38550139,88,13,Otro,22,76.64,3.43,Media,Alto,Sí,Bajo,4,Leves,tested_negative
58153524,89,17,Masculino,20,79.25,2.96,Media,Alto,Sí,Bajo,3,Ninguno,tested_negative
56833699,90,18,Femenino,15,89.5,3.24,Media,Medio,Sí,Medio,2,Ninguno,tested_negative
41747954,91,18,Otro,16,73.31,2.63,Baja,Medio,Sí,Alto,2,Graves,tested_positive
38079232,92,18,Femenino,7,97.88,3.15,Baja,Medio,No,Alto,5,Leves,tested_negative
93939460,93,12,Otro,17,85.74,3.24,Baja,Bajo,No,Alto,1,Ninguno,tested_negative
43219068,94,15,Otro,10,82.14,3.53,Media,Medio,Sí,Bajo,3,Leves,tested_negative
43251224,95,16,Femenino,4,86.54,2.77,Media,Medio,No,Alto,3,Leves,tested_negative
27299585,96,14,Femenino,6,87.12,2.88,Alta,Bajo,No,Medio,1,Leves,tested_negative
52552824,97,11,Femenino,4,80.09,3.66,Alta,Bajo,No,Bajo,3,Ninguno,tested_negative
51595221,98,16,Otro,15,82.31,3.91,Baja,Medio,No,Alto,4,Ninguno,tested_negative
31884482,99,14,Otro,4,83.97,2.86,Media,Bajo,No,Medio,3,Graves,tested_negative
99154777,100,14,Masculino,26,83.81,3.59,Alta,Medio,No,Medio,1,Graves,tested_negative
25859479,101,13,Femenino,11,64.41,2.49,Alta,Alto,No,Bajo,2,Ninguno,tested_negative
57552451,102,15,Masculino,11,100.0,3.67,Alta,Bajo,Sí,Medio,5,Graves,tested_negative
62153694,103,16,Femenino,9,72.92,3.15,Alta,Bajo,No,Bajo,3,Leves,tested_negative
48206687,104,18,Femenino,8,90.38,2.97,Alta,Medio,Sí,Medio,4,Leves,tested_negative
45926977,105,11,Otro,8,82.62,2.85,Alta,Bajo,Sí,Medio,4,Graves,tested_positive
11524489,106,18,Otro,17,85.72,3.97,Alta,Medio,No,Alto,1,Leves,tested_negative
15079242,107,13,Otro,4,60.44,2.61,Media,Medio,Sí,Alto,5,Graves,tested_positive
75785630,108,11,Masculino,5,81.58,3.0,Alta,Alto,Sí,Bajo,2,Graves,tested_negative
67154333,109,17,Femenino,16,84.06,2.78,Alta,Medio,No,Medio,4,Leves,tested_negative
39191695,110,15,Otro,10,95.69,3.79,Baja,Medio,No,Medio,2,Ninguno,tested_negative
81355093,111,17,Femenino,7,89.31,2.92,Media,Bajo,No,Medio,3,Ninguno,tested_negative
21049120,112,14,Masculino,9,80.09,2.48,Baja,Bajo,No,Medio,3,Graves,tested_negative
96769971,113,14,Masculino,6,100.0,3.2,Baja,Bajo,Sí,Bajo,3,Graves,tested_positive
86323934,114,18,Masculino,8,74.21,2.98,Alta,Alto,No,Alto,4,Leves,tested_negative
64902784,115,17,Otro,10,79.13,2.52,Alta,Bajo,Sí,Alto,4,Leves,tested_negative
88986676,116,12,Otro,11,76.01,3.3,Baja,Bajo,No,Alto,2,Ninguno,tested_negative
48109734,117,17,Femenino,9,86.42,2.04,Baja,Bajo,Sí,Bajo,5,Ninguno,tested_positive
65558588,118,12,Femenino,19,83.69,3.21,Alta,Alto,No,Medio,3,Leves,tested_negative
25798571,119,14,Masculino,7,90.72,4.36,Baja,Alto,Sí,Alto,2,Leves,tested_negative
15857787,120,15,Otro,15,80.38,3.36,Baja,Medio,No,Alto,3,Leves,tested_negative
42546149,121,18,Otro,2,89.93,4.07,Alta,Bajo,Sí,Alto,1,Ninguno,tested_negative
31708866,122,17,Otro,22,87.91,3.89,Baja,Medio,Sí,Medio,2,Graves,tested_negative
84546348,123,15,Femenino,7,79.89,3.63,Media,Alto,No,Alto,5,Graves,tested_negative
81105291,124,13,Femenino,19,92.01,3.22,Media,Alto,No,Medio,5,Leves,tested_negative
92881328,125,11,Otro,12,87.95,3.53,Alta,Alto,Sí,Alto,5,Ninguno,tested_negative
52869729,126,15,Femenino,4,86.76,2.67,Media,Alto,Sí,Medio,5,Leves,tested_negative
25625617,127,14,Masculino,16,82.72,3.88,Media,Medio,No,Bajo,5,Graves,tested_negative
98932102,128,16,Masculino,10,95.44,3.64,Media,Medio,Sí,Medio,1,Leves,tested_negative
62067865,129,10,Femenino,8,80.96,3.41,Baja,Bajo,No,Bajo,4,Ninguno,tested_negative
10341022,130,10,Masculino,10,94.06,3.55,Media,Bajo,Sí,Alto,4,Leves,tested_negative
52336707,131,12,Masculino,15,82.86,2.8,Baja,Medio,Sí,Alto,3,Leves,tested_positive
82517245,132,14,Otro,9,92.37,3.52,Baja,Bajo,Sí,Medio,1,Ninguno,tested_negative
43167100,133,18,Otro,11,93.59,3.22,Baja,Medio,No,Alto,3,Leves,tested_negative
35501882,134,18,Femenino,21,78.52,3.4,Baja,Medio,Sí,Bajo,1,Graves,tested_negative
54014981,135,16,Otro,13,77.46,2.95,Baja,Alto,No,Bajo,4,Ninguno,tested_negative
99070385,136,17,Femenino,15,77.66,3.7,Media,Alto,No,Alto,1,Leves,tested_negative
70469282,137,13,Femenino,4,73.75,2.25,Baja,Alto,Sí,Medio,3,Graves,tested_positive
29094352,138,16,Otro,3,88.74,3.16,Alta,Bajo,Sí,Alto,2,Graves,tested_negative
47433795,139,17,Otro,10,77.95,2.99,Baja,Bajo,Sí,Alto,1,Leves,tested_negative
98784630,140,16,Masculino,12,79.98,3.26,Media,Alto,Sí,Alto,3,Leves,tested_negative
59811151,141,13,Femenino,3,93.05,3.81,Media,Bajo,Sí,Medio,1,Ninguno,tested_negative
22234470,142,12,Otro,8,71.98,3.32,Alta,Bajo,Sí,Alto,3,Ninguno,tested_negative
12902845,143,15,Femenino,18,89.68,3.44,Media,Medio,Sí,Medio,2,Graves,tested_negative
47753918,144,12,Otro,6,89.2,4.09,Baja,Alto,Sí,Medio,2,Ninguno,tested_negative
34921371,145,10,Otro,14,79.4,3.47,Baja,Medio,Sí,Bajo,3,Graves,tested_negative
61519533,146,17,Femenino,8,93.63,3.22,Alta,Alto,Sí,Bajo,1,Ninguno,tested_negative
53799510,147,17,Femenino,13,72.1,2.67,Baja,Alto,No,Alto,1,Ninguno,tested_negative
15850442,148,10,Masculino,18,98.03,2.42,Alta,Bajo,No,Bajo,5,Graves,tested_negative
11313649,149,14,Femenino,10,83.6,3.18,Baja,Alto,Sí,Bajo,1,Graves,tested_negative
71191338,150,18,Femenino,11,77.5,2.47,Media,Alto,No,Alto,3,Ninguno,tested_negative
59709953,151,16,Masculino,4,83.52,3.48,Alta,Bajo,No,Medio,2,Graves,tested_negative
22129454,152,14,Otro,9,89.33,3.0,Alta,Bajo,Sí,Alto,5,Graves,tested_negative
40835970,153,18,Otro,8,71.44,2.59,Baja,Medio,Sí,Medio,3,Leves,tested_negative
36708504,154,12,Femenino,11,84.57,4.1,Media,Medio,Sí,Medio,1,Leves,tested_negative
66603995,155,10,Femenino,10,81.92,2.46,Baja,Bajo,No,Alto,5,Graves,tested_positive
97303569,156,16,Otro,5,76.96,3.82,Alta,Alto,Sí,Medio,3,Graves,tested_negative
15972497,157,12,Masculino,1,83.45,2.96,Baja,Bajo,No,Alto,2,Leves,tested_negative
64450958,158,10,Femenino,20,90.37,3.35,Baja,Alto,No,Bajo,1,Ninguno,tested_negative
57214170,159,18,Otro,7,98.79,4.04,Media,Alto,Sí,Medio,4,Ninguno,tested_negative
69320017,160,11,Femenino,22,86.38,3.0,Media,Medio,Sí,Medio,2,Ninguno,tested_negative
83373901,161,11,Femenino,10,100.0,3.61,Baja,Medio,Sí,Medio,3,Ninguno,tested_negative
88424319,162,11,Masculino,16,85.27,4.19,Alta,Medio,Sí,Bajo,2,Graves,tested_negative
23135700,163,18,Femenino,12,61.64,2.83,Alta,Medio,Sí,Medio,1,Leves,tested_positive
61178522,164,17,Femenino,10,91.94,3.82,Media,Bajo,Sí,Alto,2,Graves,tested_negative
54633630,165,18,Femenino,14,83.62,3.25,Alta,Medio,No,Alto,5,Ninguno,tested_negative
11384471,166,17,Otro,11,78.77,3.0,Alta,Alto,Sí,Medio,1,Graves,tested_negative
83587472,167,11,Otro,22,82.07,3.5,Baja,Alto,Sí,Medio,1,Leves,tested_negative
19417104,168,12,Femenino,11,56.61,2.7,Alta,Medio,No,Bajo,4,Leves,tested_positive
67911856,169,14,Masculino,5,80.26,3.14,Alta,Medio,No,Medio,1,Leves,tested_negative
91487883,170,10,Otro,11,72.68,2.91,Alta,Alto,Sí,Medio,3,Leves,tested_negative
38250162,171,16,Otro,5,78.48,3.2,Media,Medio,Sí,Bajo,5,Graves,tested_negative
28551076,172,11,Femenino,5,86.12,3.52,Media,Alto,No,Bajo,2,Leves,tested_negative
65415874,173,15,Femenino,5,89.08,2.52,Media,Medio,No,Medio,5,Graves,tested_negative
52643120,174,15,Masculino,21,83.66,3.65,Baja,Bajo,No,Alto,5,Leves,tested_negative
52222930,175,13,Femenino,8,91.46,3.91,Media,Bajo,No,Medio,2,Graves,tested_negative
49492796,176,11,Femenino,13,90.7,3.36,Alta,Alto,Sí,Alto,2,Graves,tested_negative
28972979,177,11,Femenino,15,81.82,3.38,Baja,Alto,Sí,Alto,2,Graves,tested_negative
24286146,178,15,Otro,25,91.72,4.38,Baja,Alto,Sí,Alto,5,Ninguno,tested_negative
27887651,179,18,Otro,12,81.72,2.89,Media,Bajo,Sí,Medio,5,Graves,tested_positive
79592539,180,12,Masculino,6,90.56,3.01,Baja,Bajo,Sí,Alto,1,Leves,tested_negative
98775715,181,17,Masculino,4,82.7,2.69,Media,Bajo,No,Bajo,2,Leves,tested_negative
66538420,182,16,Masculino,3,99.68,4.32,Baja,Bajo,No,Alto,4,Leves,tested_negative
78137302,183,16,Otro,3,92.27,3.49,Media,Alto,Sí,Alto,2,Leves,tested_negative
51956056,184,10,Masculino,22,95.5,4.02,Alta,Alto,No,Alto,5,Graves,tested_negative
25936059,185,17,Femenino,6,88.24,3.12,Baja,Alto,Sí,Medio,5,Leves,tested_negative
46461664,186,12,Femenino,18,71.38,3.02,Alta,Medio,Sí,Medio,2,Leves,tested_negative
11675467,187,10,Femenino,12,80.81,3.44,Baja,Medio,No,Alto,2,Ninguno,tested_negative
25979630,188,17,Otro,18,73.22,3.03,Baja,Bajo,No,Bajo,2,Leves,tested_negative
81631451,189,11,Otro,15,100.0,3.81,Alta,Medio,Sí,Medio,2,Graves,tested_negative
48271126,190,13,Masculino,21,90.95,2.32,Alta,Medio,No,Alto,4,Ninguno,tested_negative
57276170,191,11,Otro,6,87.64,3.57,Baja,Alto,Sí,Alto,2,Ninguno,tested_negative
14146730,192,13,Femenino,6,97.55,3.59,Media,Bajo,No,Alto,5,Graves,tested_negative
24671990,193,13,Otro,26,86.4,3.56,Baja,Medio,No,Bajo,1,Leves,tested_negative
28165636,194,14,Femenino,1,95.31,3.54,Media,Bajo,Sí,Bajo,3,Leves,tested_negative
99421499,195,12,Otro,8,100.0,3.36,Baja,Bajo,No,Medio,3,Graves,tested_negative
36070721,196,17,Otro,6,78.55,3.43,Baja,Medio,No,Bajo,5,Graves,tested_negative
41616595,197,18,Otro,20,90.04,3.9,Baja,Bajo,Sí,Medio,5,Graves,tested_negative
50686682,198,10,Femenino,21,90.67,3.88,Media,Medio,No,Bajo,5,Ninguno,tested_negative
19580013,199,11,Femenino,22,100.0,4.63,Alta,Bajo,Sí,Bajo,5,Ninguno,tested_negative
10998671,200,14,Masculino,10,94.2,3.25,Alta,Alto,No,Medio,3,Leves,tested_negative
67093582,201,17,Otro,18,81.8,3.98,Alta,Bajo,Sí,Bajo,2,Ninguno,tested_negative
64923418,202,10,Femenino,19,76.12,3.48,Baja,Bajo,No,Alto,3,Ninguno,tested_negative
65079186,203,16,Otro,8,90.24,3.8,Baja,Bajo,No,Alto,4,Ninguno,tested_negative
60186832,204,12,Femenino,21,82.97,3.31,Media,Alto,No,Medio,2,Graves,tested_negative
93716837,205,12,Masculino,21,98.53,4.27,Media,Medio,Sí,Bajo,5,Graves,tested_negative
21760948,206,16,Otro,10,81.93,2.69,Alta,Medio,Sí,Medio,3,Graves,tested_negative
89405228,207,10,Otro,23,100.0,3.76,Media,Alto,Sí,Bajo,2,Graves,tested_negative
87153401,208,14,Otro,23,89.96,4.02,Baja,Medio,Sí,Alto,3,Graves,tested_negative
98146719,209,18,Femenino,10,78.18,3.03,Media,Bajo,No,Medio,4,Leves,tested_negative
52951318,210,17,Masculino,9,88.34,3.18,Baja,Alto,No,Bajo,5,Graves,tested_negative
61608432,211,16,Otro,5,97.69,3.19,Alta,Alto,Sí,Medio,1,Ninguno,tested_negative
56186988,212,16,Otro,23,79.97,2.98,Media,Medio,No,Alto,2,Leves,tested_negative
30966886,213,14,Femenino,18,71.54,3.37,Baja,Bajo,No,Bajo,5,Graves,tested_negative
15982856,214,12,Masculino,5,80.58,3.07,Media,Alto,No,Medio,2,Ninguno,tested_negative
84007176,215,11,Femenino,16,90.19,3.05,Alta,Alto,No,Medio,5,Leves,tested_negative
80666778,216,17,Otro,14,73.3,2.54,Baja,Bajo,Sí,Medio,1,Leves,tested_positive
29721712,217,11,Femenino,8,91.58,3.36,Baja,Medio,Sí,Bajo,4,Graves,tested_negative
65834823,218,18,Masculino,14,96.17,3.47,Alta,Medio,No,Bajo,1,Graves,tested_negative
89946198,219,16,Otro,10,75.42,2.91,Alta,Bajo,No,Bajo,1,Leves,tested_negative
74096266,220,18,Femenino,32,100.0,4.84,Alta,Alto,No,Bajo,5,Leves,tested_negative
12691406,221,13,Femenino,15,72.94,3.4,Baja,Alto,No,Medio,1,Leves,tested_negative
65764002,222,18,Femenino,12,69.33,3.42,Baja,Medio,Sí,Medio,2,Graves,tested_negative
52486696,223,10,Otro,1,80.33,3.25,Media,Alto,Sí,Bajo,4,Leves,tested_negative
25638149,224,13,Otro,6,97.52,3.68,Baja,Alto,No,Bajo,5,Graves,tested_negative
45368606,225,12,Femenino,25,89.7,3.44,Alta,Bajo,Sí,Alto,5,Leves,tested_negative
40461885,226,11,Masculino,20,76.21,2.97,Media,Medio,Sí,Alto,5,Leves,tested_negative
43424494,227,14,Masculino,16,99.27,3.65,Alta,Bajo,No,Alto,2,Graves,tested_negative
67244369,228,15,Masculino,19,71.62,3.31,Media,Bajo,Sí,Bajo,2,Leves,tested_negative
89519352,229,12,Masculino,4,81.41,3.54,Alta,Medio,Sí,Bajo,1,Ninguno,tested_negative
89410500,230,13,Otro,17,80.08,3.7,Alta,Medio,No,Medio,4,Leves,tested_negative
84073135,231,15,Masculino,16,66.18,3.1,Media,Medio,No,Bajo,5,Ninguno,tested_negative
70213357,232,10,Masculino,4,94.57,3.31,Baja,Bajo,No,Medio,3,Ninguno,tested_negative
65929180,233,16,Otro,10,81.72,2.9,Baja,Alto,Sí,Alto,4,Graves,tested_positive
58482030,234,13,Otro,7,100.0,3.36,Media,Medio,No,Medio,1,Graves,tested_negative
89273666,235,14,Otro,10,69.98,2.81,Alta,Alto,Sí,Medio,1,Graves,tested_negative
53930975,236,18,Femenino,12,75.61,3.27,Baja,Bajo,No,Bajo,4,Ninguno,tested_negative
14726552,237,17,Femenino,22,74.2,3.83,Media,Alto,Sí,Alto,1,Ninguno,tested_negative
73611722,238,16,Otro,7,87.16,2.9,Alta,Alto,Sí,Medio,3,Leves,tested_negative
98291540,239,17,Femenino,2,75.27,2.58,Alta,Medio,Sí,Alto,1,Ninguno,tested_negative
81407521,240,14,Femenino,1,99.44,3.66,Media,Bajo,No,Bajo,5,Ninguno,tested_negative
97181122,241,15,Femenino,15,100.0,3.57,Alta,Alto,No,Alto,2,Ninguno,tested_negative
38963651,242,12,Masculino,5,85.17,3.11,Baja,Medio,No,Medio,4,Ninguno,tested_negative
50515201,243,10,Masculino,8,86.56,3.37,Alta,Alto,Sí,Bajo,3,Graves,tested_negative
74523089,244,16,Otro,16,80.91,2.98,Media,Medio,No,Bajo,2,Leves,tested_negative
67423404,245,12,Femenino,14,96.21,2.84,Media,Medio,No,Medio,2,Leves,tested_negative
68063772,246,18,Otro,21,100.0,4.05,Baja,Bajo,Sí,Bajo,5,Graves,tested_negative
67077238,247,16,Femenino,23,94.88,3.85,Baja,Medio,No,Alto,5,Graves,tested_negative
87432394,248,12,Femenino,29,80.08,3.43,Baja,Medio,Sí,Alto,5,Leves,tested_negative
95964674,249,16,Masculino,11,86.22,2.95,Baja,Bajo,Sí,Bajo,3,Graves,tested_positive
49331588,250,17,Otro,13,87.2,3.58,Baja,Medio,Sí,Alto,5,Graves,tested_negative
65126019,251,13,Femenino,12,76.59,4.2,Alta,Bajo,Sí,Bajo,2,Ninguno,tested_negative
73237890,252,17,Femenino,7,77.24,3.7,Media,Bajo,Sí,Alto,4,Ninguno,tested_negative
98291018,253,12,Masculino,2,97.89,2.94,Media,Medio,No,Medio,2,Ninguno,tested_negative
25013906,254,13,Femenino,25,99.56,4.16,Media,Alto,Sí,Medio,1,Graves,tested_negative
42277088,255,11,Otro,3,71.33,2.6,Baja,Medio,No,Bajo,3,Graves,tested_positive
46060052,256,11,Femenino,13,89.19,3.37,Media,Medio,No,Medio,3,Leves,tested_negative
84711088,257,17,Masculino,2,92.1,2.95,Baja,Alto,No,Alto,3,Graves,tested_positive
58799071,258,10,Otro,3,100.0,3.52,Baja,Alto,Sí,Alto,5,Ninguno,tested_negative
16117922,259,17,Masculino,4,100.0,4.13,Alta,Medio,No,Medio,3,Ninguno,tested_negative
54293345,260,14,Otro,8,74.02,3.25,Baja,Alto,Sí,Alto,3,Ninguno,tested_negative
65378000,261,11,Femenino,24,89.69,4.31,Baja,Medio,No,Alto,2,Leves,tested_negative
26389720,262,14,Otro,8,91.39,2.74,Baja,Bajo,Sí,Bajo,1,Ninguno,tested_positive
15755258,263,13,Masculino,8,94.73,3.08,Alta,Bajo,No,Alto,5,Graves,tested_negative
65221066,264,17,Femenino,16,87.17,3.32,Media,Alto,No,Bajo,1,Leves,tested_negative
38623242,265,11,Femenino,18,82.86,2.9,Media,Medio,No,Bajo,1,Graves,tested_negative
96029850,266,17,Masculino,19,80.39,3.73,Baja,Bajo,Sí,Medio,3,Ninguno,tested_negative
28779224,267,15,Femenino,12,93.13,3.8,Baja,Alto,No,Bajo,5,Graves,tested_negative
86977142,268,12,Femenino,9,67.23,2.48,Baja,Medio,Sí,Medio,2,Leves,tested_negative
57996239,269,12,Otro,8,92.82,3.71,Alta,Alto,Sí,Bajo,5,Ninguno,tested_negative
94110879,270,10,Otro,22,87.17,3.99,Alta,Medio,Sí,Bajo,1,Leves,tested_negative
14619291,271,16,Masculino,4,94.12,3.45,Media,Alto,No,Alto,4,Graves,tested_negative
41438931,272,12,Femenino,11,84.0,3.48,Media,Medio,No,Bajo,5,Ninguno,tested_negative
69670799,273,18,Otro,6,100.0,3.73,Alta,Alto,Sí,Medio,4,Leves,tested_negative
15231931,274,13,Masculino,20,100.0,3.49,Baja,Bajo,No,Bajo,2,Leves,tested_negative
89257923,275,14,Femenino,28,100.0,3.44,Media,Bajo,Sí,Medio,3,Leves,tested_negative
27900015,276,10,Otro,3,79.57,3.16,Baja,Medio,Sí,Bajo,5,Ninguno,tested_negative
84822424,277,13,Masculino,27,89.27,3.33,Alta,Alto,No,Medio,3,Ninguno,tested_negative
47269801,278,18,Masculino,7,70.58,2.78,Alta,Alto,No,Medio,4,Graves,tested_negative
43613825,279,11,Femenino,7,93.84,3.3,Alta,Bajo,Sí,Bajo,4,Ninguno,tested_negative
98614113,280,16,Masculino,20,79.69,3.96,Media,Bajo,Sí,Medio,2,Graves,tested_negative
19584840,281,16,Otro,10,91.7,3.29,Media,Alto,No,Alto,2,Leves,tested_negative
77114506,282,12,Femenino,11,94.87,3.13,Alta,Alto,No,Alto,5,Graves,tested_negative
35957061,283,10,Otro,21,94.64,4.16,Media,Alto,Sí,Medio,1,Leves,tested_negative
40477963,284,14,Femenino,25,90.72,4.07,Media,Alto,No,Medio,4,Graves,tested_negative
67263480,285,14,Femenino,9,87.87,3.42,Baja,Medio,No,Bajo,4,Graves,tested_negative
25951552,286,12,Femenino,7,92.56,3.83,Baja,Medio,No,Medio,5,Graves,tested_negative
95694164,287,17,Otro,11,100.0,3.88,Baja,Bajo,Sí,Medio,4,Leves,tested_negative
32058880,288,10,Femenino,10,77.78,2.9,Alta,Alto,No,Medio,2,Leves,tested_negative
32054681,289,12,Masculino,25,87.61,3.25,Alta,Alto,No,Bajo,2,Graves,tested_negative
17311965,290,16,Otro,14,86.71,3.19,Media,Bajo,Sí,Bajo,5,Leves,tested_negative
44577689,291,13,Masculino,7,81.83,3.28,Baja,Bajo,Sí,Alto,3,Leves,tested_negative
63701243,292,14,Masculino,19,62.49,2.81,Alta,Medio,Sí,Bajo,2,Ninguno,tested_positive
43905326,293,15,Femenino,3,90.94,3.21,Baja,Medio,No,Bajo,4,Ninguno,tested_negative
59786612,294,11,Otro,10,98.59,3.37,Media,Bajo,Sí,Bajo,1,Leves,tested_negative
34821104,295,16,Masculino,16,93.74,3.39,Media,Alto,Sí,Bajo,5,Graves,tested_negative
89326666,296,16,Masculino,15,63.92,2.42,Alta,Medio,Sí,Bajo,5,Leves,tested_positive
44278285,297,10,Femenino,15,82.05,3.54,Media,Medio,Sí,Medio,5,Graves,tested_negative
99641236,298,13,Femenino,8,81.82,3.75,Baja,Medio,No,Alto,4,Graves,tested_negative
18343174,299,13,Masculino,11,70.6,3.11,Alta,Bajo,Sí,Alto,1,Leves,tested_negative
67308707,300,15,Otro,4,92.11,3.8,Baja,Bajo,Sí,Alto,4,Graves,tested_negative
34638279,301,16,Otro,16,76.32,3.21,Media,Bajo,No,Bajo,4,Ninguno,tested_negative
52687341,302,18,Masculino,8,95.14,3.69,Baja,Alto,Sí,Alto,4,Ninguno,tested_negative
21366203,303,18,Femenino,12,93.96,3.65,Media,Bajo,No,Bajo,1,Leves,tested_negative
91527014,304,12,Otro,9,79.31,2.49,Baja,Alto,Sí,Bajo,1,Graves,tested_positive
15799021,305,10,Otro,22,71.94,3.99,Baja,Bajo,Sí,Alto,2,Graves,tested_negative
89180859,306,16,Femenino,8,76.83,3.31,Media,Alto,Sí,Medio,1,Ninguno,tested_negative
95564648,307,14,Otro,15,69.54,2.85,Baja,Alto,Sí,Bajo,2,Graves,tested_positive
18987931,308,17,Otro,2,100.0,3.72,Alta,Alto,No,Alto,1,Leves,tested_negative
68249889,309,18,Masculino,28,91.85,3.35,Alta,Alto,Sí,Alto,3,Graves,tested_negative
49529196,310,13,Otro,17,93.17,3.53,Alta,Medio,Sí,Alto,2,Leves,tested_negative
37389772,311,15,Otro,12,89.78,3.62,Alta,Bajo,No,Alto,1,Ninguno,tested_negative
90112181,312,18,Femenino,7,87.72,3.41,Alta,Alto,Sí,Bajo,3,Leves,tested_negative
83477634,313,11,Masculino,15,94.6,3.34,Media,Bajo,Sí,Medio,3,Graves,tested_negative
23664282,314,16,Masculino,9,100.0,3.33,Baja,Bajo,No,Medio,2,Graves,tested_negative
15456566,315,14,Otro,2,97.95,2.93,Media,Medio,Sí,Alto,4,Ninguno,tested_negative
39206802,316,11,Femenino,7,85.93,3.25,Alta,Bajo,Sí,Medio,3,Ninguno,tested_negative
43199939,317,18,Femenino,6,100.0,3.6,Baja,Bajo,Sí,Alto,1,Leves,tested_negative
86184301,318,16,Masculino,7,70.17,2.49,Alta,Alto,No,Medio,2,Ninguno,tested_negative
65610827,319,14,Masculino,9,87.4,3.08,Baja,Medio,Sí,Alto,2,Leves,tested_negative
65486604,320,11,Otro,6,91.91,3.71,Baja,Alto,No,Alto,1,Leves,tested_negative
65620377,321,11,Masculino,11,77.25,2.95,Baja,Medio,Sí,Bajo,5,Ninguno,tested_positive
32642370,322,16,Femenino,14,86.2,3.21,Baja,Medio,Sí,Medio,3,Leves,tested_negative
74493211,323,11,Femenino,7,77.22,2.43,Baja,Medio,Sí,Bajo,4,Graves,tested_positive
72409307,324,15,Masculino,12,96.73,3.23,Alta,Medio,No,Medio,4,Leves,tested_negative
17164137,325,10,Femenino,8,100.0,3.12,Baja,Bajo,No,Bajo,5,Leves,tested_negative
23106192,326,18,Femenino,10,71.55,3.38,Baja,Bajo,Sí,Bajo,1,Ninguno,tested_negative
28048398,327,16,Masculino,10,79.89,2.86,Media,Medio,Sí,Bajo,4,Leves,tested_negative
12803315,328,16,Masculino,3,100.0,3.45,Media,Bajo,No,Alto,3,Graves,tested_negative
28153871,329,17,Otro,8,73.8,2.93,Media,Alto,No,Bajo,2,Leves,tested_negative
96336251,330,11,Otro,18,81.58,3.96,Media,Medio,Sí,Medio,3,Leves,tested_negative
74843770,331,13,Otro,13,88.4,3.57,Alta,Bajo,No,Alto,3,Leves,tested_negative
60713540,332,12,Masculino,11,93.89,3.01,Baja,Bajo,No,Bajo,2,Ninguno,tested_negative
12346725,333,10,Femenino,14,69.44,3.09,Alta,Alto,Sí,Alto,4,Graves,tested_negative
89478101,334,18,Otro,9,87.3,2.72,Alta,Medio,No,Alto,3,Ninguno,tested_negative
94988188,335,10,Masculino,19,90.7,2.96,Baja,Alto,No,Alto,2,Graves,tested_negative
17889087,336,16,Femenino,14,76.88,3.41,Media,Alto,No,Medio,1,Ninguno,tested_negative
85598697,337,18,Masculino,7,90.02,3.35,Media,Medio,No,Alto,3,Ninguno,tested_negative
48971303,338,16,Otro,17,100.0,3.83,Media,Bajo,No,Bajo,2,Graves,tested_negative
95071085,339,15,Masculino,9,76.83,3.91,Baja,Bajo,Sí,Bajo,3,Ninguno,tested_negative
41228389,340,18,Masculino,10,82.24,3.75,Alta,Alto,No,Alto,3,Leves,tested_negative
31075322,341,11,Masculino,11,80.7,2.73,Baja,Alto,Sí,Bajo,2,Ninguno,tested_negative
66678032,342,13,Masculino,18,88.81,3.39,Media,Medio,No,Alto,5,Ninguno,tested_negative
56934148,343,12,Masculino,2,69.29,2.99,Media,Alto,No,Medio,3,Leves,tested_negative
38914167,344,12,Femenino,13,92.12,3.67,Alta,Alto,Sí,Bajo,2,Leves,tested_negative
32682008,345,10,Otro,10,77.38,3.16,Baja,Bajo,Sí,Bajo,2,Leves,tested_negative
35333724,346,17,Otro,27,92.17,3.89,Baja,Medio,No,Alto,3,Leves,tested_negative
33862624,347,10,Masculino,15,97.9,3.54,Alta,Medio,Sí,Alto,5,Ninguno,tested_negative
34260240,348,18,Masculino,6,80.44,3.89,Baja,Alto,No,Alto,3,Ninguno,tested_negative
12314833,349,14,Femenino,2,86.99,3.01,Media,Medio,No,Medio,3,Ninguno,tested_negative
38282467,350,11,Masculino,17,87.03,3.33,Media,Alto,Sí,Alto,4,Leves,tested_negative
38634427,351,10,Masculino,16,92.47,4.05,Baja,Alto,Sí,Bajo,5,Ninguno,tested_negative
51043954,352,16,Masculino,4,100.0,3.59,Alta,Alto,No,Alto,3,Graves,tested_negative
18884844,353,11,Femenino,9,77.45,2.94,Baja,Alto,Sí,Medio,3,Ninguno,tested_negative
24530462,354,13,Masculino,21,89.7,4.11,Media,Alto,No,Bajo,2,Leves,tested_negative
72232366,355,15,Otro,21,79.78,3.27,Baja,Alto,No,Bajo,3,Leves,tested_negative
78421833,356,17,Femenino,20,80.89,2.8,Alta,Medio,Sí,Bajo,2,Leves,tested_negative
88444410,357,11,Femenino,19,92.6,4.13,Alta,Alto,No,Bajo,5,Ninguno,tested_negative
49933876,358,10,Otro,17,78.47,3.36,Baja,Medio,Sí,Alto,2,Leves,tested_negative
33289404,359,13,Femenino,16,89.05,3.27,Media,Medio,Sí,Medio,2,Ninguno,tested_negative
77965045,360,15,Otro,17,68.09,3.0,Alta,Alto,No,Bajo,2,Leves,tested_negative
23605712,361,15,Femenino,9,95.13,3.13,Baja,Bajo,Sí,Medio,1,Graves,tested_negative
74878467,362,18,Masculino,23,83.69,3.15,Alta,Bajo,Sí,Medio,2,Leves,tested_negative
33846909,363,11,Masculino,27,77.16,3.87,Media,Medio,Sí,Bajo,5,Graves,tested_negative
64008888,364,11,Femenino,15,77.81,3.05,Alta,Bajo,No,Medio,3,Leves,tested_negative
44891255,365,15,Femenino,21,76.29,2.64,Alta,Medio,Sí,Bajo,4,Graves,tested_positive
13330258,366,10,Otro,2,84.94,3.53,Alta,Medio,Sí,Bajo,5,Leves,tested_negative
72261433,367,17,Femenino,11,77.98,3.25,Alta,Alto,Sí,Medio,2,Ninguno,tested_negative
54809691,368,13,Femenino,6,72.22,2.96,Baja,Bajo,No,Medio,1,Graves,tested_positive
32278522,369,14,Otro,17,75.38,3.12,Media,Bajo,No,Alto,3,Leves,tested_negative
68343653,370,17,Otro,16,81.14,3.29,Baja,Alto,No,Medio,1,Leves,tested_negative
50384012,371,16,Femenino,19,91.83,3.19,Alta,Bajo,No,Alto,1,Leves,tested_negative
45233714,372,17,Otro,8,70.18,3.04,Media,Bajo,Sí,Alto,3,Leves,tested_negative
66179843,373,15,Masculino,16,86.85,3.75,Baja,Alto,Sí,Alto,4,Graves,tested_negative
34487512,374,17,Masculino,2,91.94,3.44,Alta,Bajo,No,Bajo,3,Leves,tested_negative
85964789,375,10,Otro,3,69.64,3.1,Media,Alto,No,Alto,3,Leves,tested_negative
80492739,376,12,Masculino,12,83.89,3.07,Media,Alto,Sí,Bajo,3,Leves,tested_negative
82031195,377,17,Femenino,20,71.97,2.87,Baja,Bajo,No,Bajo,2,Ninguno,tested_negative
11154088,378,13,Otro,16,75.88,3.84,Alta,Medio,No,Bajo,5,Leves,tested_negative
67193450,379,12,Femenino,5,75.43,2.63,Media,Alto,Sí,Medio,2,Ninguno,tested_negative
92825775,380,16,Masculino,16,82.31,3.4,Media,Bajo,Sí,Alto,4,Ninguno,tested_negative
88981184,381,14,Femenino,10,75.65,3.14,Alta,Medio,No,Medio,5,Ninguno,tested_negative
32997201,382,10,Femenino,20,94.69,4.15,Media,Medio,No,Medio,5,Ninguno,tested_negative
63653105,383,12,Femenino,10,87.24,3.4,Alta,Alto,Sí,Medio,4,Leves,tested_negative
74781345,384,16,Masculino,11,85.52,4.22,Baja,Alto,No,Bajo,1,Leves,tested_negative
27942679,385,16,Femenino,4,82.43,2.85,Baja,Bajo,No,Medio,5,Ninguno,tested_positive
54968413,386,16,Masculino,11,86.93,2.73,Baja,Alto,No,Bajo,4,Ninguno,tested_negative
24606720,387,15,Femenino,5,99.08,3.41,Media,Medio,Sí,Medio,5,Graves,tested_negative
54559242,388,16,Femenino,2,70.71,2.85,Media,Medio,Sí,Medio,4,Ninguno,tested_negative
45387472,389,11,Masculino,8,74.39,3.15,Media,Bajo,Sí,Alto,1,Graves,tested_negative
41160195,390,12,Otro,6,85.12,3.13,Alta,Alto,Sí,Bajo,2,Graves,tested_negative
97152229,391,17,Masculino,19,87.54,3.9,Media,Bajo,No,Bajo,2,Leves,tested_negative
75632913,392,15,Masculino,7,78.19,3.82,Baja,Bajo,Sí,Bajo,3,Ninguno,tested_negative
19340942,393,13,Masculino,8,80.34,3.37,Alta,Alto,No,Alto,3,Graves,tested_negative
31922769,394,16,Masculino,14,91.4,3.58,Media,Bajo,Sí,Medio,1,Graves,tested_negative
53267991,395,10,Otro,11,100.0,3.43,Baja,Bajo,No,Bajo,4,Ninguno,tested_negative
30694260,396,13,Femenino,15,84.07,3.28,Media,Bajo,No,Bajo,1,Leves,tested_negative
27161679,397,14,Masculino,8,82.67,3.05,Baja,Alto,Sí,Bajo,5,Graves,tested_negative
53672138,398,11,Femenino,6,72.88,3.11,Media,Medio,Sí,Alto,3,Leves,tested_negative
36527254,399,12,Masculino,19,92.44,4.13,Alta,Bajo,Sí,Medio,5,Leves,tested_negative
42452372,400,16,Otro,14,72.54,3.26,Baja,Medio,No,Alto,3,Graves,tested_negative
85892480,401,16,Femenino,17,95.14,3.61,Alta,Alto,No,Medio,2,Graves,tested_negative
70519387,402,17,Femenino,21,75.68,3.31,Media,Bajo,No,Alto,4,Graves,tested_negative
72162786,403,16,Otro,12,91.15,3.16,Baja,Medio,Sí,Bajo,3,Leves,tested_negative
13978194,404,15,Femenino,7,78.74,3.56,Alta,Medio,Sí,Bajo,2,Leves,tested_negative
53544739,405,18,Otro,9,79.89,3.51,Baja,Medio,No,Medio,1,Ninguno,tested_negative
32777939,406,13,Otro,11,64.53,3.46,Baja,Alto,Sí,Alto,1,Ninguno,tested_negative
66925775,407,14,Otro,7,96.75,3.84,Media,Bajo,No,Medio,1,Graves,tested_negative
52515784,408,17,Masculino,17,93.98,3.55,Media,Bajo,No,Alto,3,Graves,tested_negative
29692472,409,13,Otro,5,83.34,3.03,Alta,Medio,Sí,Bajo,3,Leves,tested_negative
83767908,410,11,Masculino,15,71.86,3.44,Alta,Medio,No,Bajo,1,Graves,tested_negative
95887797,411,17,Masculino,6,74.56,2.89,Media,Bajo,No,Bajo,1,Ninguno,tested_negative
90837812,412,18,Masculino,14,70.56,2.98,Alta,Medio,Sí,Medio,3,Leves,tested_negative
50204952,413,14,Otro,7,78.34,3.26,Baja,Alto,Sí,Bajo,5,Leves,tested_positive
33586984,414,17,Femenino,2,96.53,2.6,Baja,Bajo,No,Alto,5,Ninguno,tested_positive
23554342,415,13,Masculino,14,77.71,3.2,Media,Bajo,No,Bajo,1,Leves,tested_negative
46740391,416,17,Otro,10,75.7,3.33,Media,Medio,No,Alto,5,Leves,tested_negative
44961912,417,17,Otro,17,70.46,3.51,Baja,Alto,Sí,Medio,4,Leves,tested_negative
54649721,418,18,Otro,13,76.28,3.18,Alta,Medio,No,Alto,1,Graves,tested_negative
65368518,419,10,Otro,16,78.48,2.75,Baja,Medio,Sí,Bajo,1,Ninguno,tested_negative
78755480,420,17,Otro,16,86.1,3.73,Alta,Medio,No,Bajo,1,Leves,tested_negative
11442812,421,15,Masculino,17,86.16,3.23,Baja,Alto,Sí,Bajo,1,Ninguno,tested_negative
18521616,422,14,Femenino,17,88.51,3.83,Alta,Bajo,Sí,Alto,2,Ninguno,tested_negative
41315588,423,10,Femenino,13,71.71,2.75,Media,Alto,No,Medio,4,Ninguno,tested_negative
44735445,424,16,Femenino,10,86.06,3.21,Alta,Medio,No,Alto,5,Graves,tested_negative
54093219,425,18,Masculino,5,85.48,3.87,Media,Bajo,No,Bajo,4,Graves,tested_negative
34771996,426,12,Femenino,4,100.0,4.22,Media,Bajo,No,Bajo,5,Ninguno,tested_negative
77820189,427,16,Masculino,25,95.8,3.23,Alta,Medio,No,Bajo,2,Ninguno,tested_negative
85642170,428,17,Otro,7,72.27,2.47,Alta,Medio,No,Medio,5,Graves,tested_negative
91834061,429,13,Otro,12,97.1,3.1,Alta,Bajo,Sí,Bajo,1,Leves,tested_negative
30179759,430,10,Otro,6,88.65,3.08,Baja,Alto,No,Alto,1,Ninguno,tested_negative
95865347,431,13,Otro,22,97.44,3.8,Baja,Alto,Sí,Medio,2,Graves,tested_negative
65726859,432,13,Masculino,4,87.93,3.85,Baja,Alto,No,Bajo,2,Ninguno,tested_negative
32238963,433,16,Otro,17,73.06,2.95,Alta,Medio,Sí,Alto,3,Ninguno,tested_negative
10769623,434,17,Femenino,6,91.69,3.45,Baja,Bajo,Sí,Medio,4,Graves,tested_negative
62796531,435,13,Masculino,10,70.87,3.03,Media,Alto,No,Medio,1,Ninguno,tested_negative
29194042,436,17,Otro,2,90.22,3.15,Baja,Medio,Sí,Alto,5,Ninguno,tested_negative
89066963,437,12,Femenino,13,94.32,3.76,Baja,Alto,Sí,Bajo,4,Ninguno,tested_negative
25829900,438,13,Femenino,4,85.32,3.02,Alta,Bajo,No,Medio,4,Leves,tested_negative
81998502,439,17,Otro,5,73.9,2.01,Media,Medio,No,Bajo,2,Graves,tested_negative
87277627,440,13,Otro,5,75.27,3.41,Baja,Alto,No,Medio,4,Leves,tested_negative
29570019,441,17,Masculino,5,84.42,3.49,Baja,Medio,Sí,Bajo,4,Graves,tested_positive
98100366,442,11,Masculino,15,89.53,3.6,Media,Bajo,No,Alto,1,Ninguno,tested_negative
71534694,443,15,Masculino,10,96.0,3.81,Baja,Bajo,No,Medio,1,Ninguno,tested_negative
86442209,444,17,Femenino,17,100.0,4.02,Media,Alto,Sí,Alto,3,Ninguno,tested_negative
59356560,445,18,Femenino,3,90.48,3.58,Media,Medio,Sí,Bajo,1,Graves,tested_negative
46569063,446,12,Otro,15,62.7,2.75,Alta,Medio,Sí,Medio,2,Leves,tested_positive
30055530,447,18,Masculino,21,93.14,3.48,Media,Medio,Sí,Medio,5,Leves,tested_negative
71981205,448,14,Masculino,17,82.9,2.9,Alta,Alto,No,Alto,3,Graves,tested_negative
72244418,449,13,Otro,14,94.83,3.32,Media,Alto,No,Alto,1,Leves,tested_negative
82451718,450,16,Otro,10,80.08,2.72,Baja,Medio,Sí,Bajo,4,Ninguno,tested_positive
84828785,451,10,Masculino,2,63.9,3.61,Baja,Alto,Sí,Alto,4,Ninguno,tested_positive
85401275,452,14,Masculino,5,81.14,3.18,Media,Bajo,Sí,Bajo,3,Ninguno,tested_negative
14891589,453,13,Femenino,4,91.03,3.55,Media,Bajo,No,Alto,2,Leves,tested_negative
85159158,454,11,Femenino,25,90.32,3.88,Baja,Alto,No,Alto,1,Ninguno,tested_negative
47887871,455,10,Femenino,9,71.83,2.96,Media,Medio,Sí,Bajo,4,Leves,tested_negative
64946072,456,15,Otro,4,94.24,2.86,Media,Alto,No,Alto,4,Graves,tested_negative
89006073,457,11,Femenino,3,98.91,3.2,Alta,Medio,No,Bajo,4,Graves,tested_negative
36580721,458,13,Femenino,14,94.18,3.68,Baja,Medio,Sí,Alto,3,Graves,tested_negative
77438891,459,10,Femenino,14,77.57,3.27,Media,Bajo,No,Medio,3,Ninguno,tested_negative
60640082,460,10,Otro,3,90.03,3.45,Baja,Medio,No,Alto,4,Ninguno,tested_negative
91144889,461,10,Femenino,15,83.92,3.69,Alta,Bajo,No,Bajo,4,Leves,tested_negative
83028721,462,15,Masculino,16,89.05,4.85,Alta,Bajo,Sí,Medio,2,Graves,tested_negative
51145331,463,13,Femenino,12,78.2,3.42,Baja,Alto,No,Bajo,3,Graves,tested_negative
51643414,464,16,Femenino,3,82.1,3.11,Alta,Alto,Sí,Bajo,2,Graves,tested_negative
23775893,465,15,Otro,14,80.82,3.4,Alta,Alto,No,Medio,1,Leves,tested_negative
58726338,466,17,Masculino,13,82.83,2.87,Baja,Bajo,No,Bajo,3,Leves,tested_negative
42516378,467,15,Femenino,4,85.97,3.4,Alta,Alto,No,Medio,5,Ninguno,tested_negative
76031661,468,12,Masculino,20,92.28,3.71,Alta,Alto,Sí,Alto,4,Leves,tested_negative
61080675,469,11,Otro,8,93.58,4.04,Alta,Medio,Sí,Alto,1,Graves,tested_negative
96579977,470,18,Otro,8,78.73,3.13,Media,Alto,No,Medio,4,Leves,tested_negative
79049485,471,13,Otro,14,94.76,3.8,Alta,Bajo,No,Medio,4,Leves,tested_negative
72527361,472,10,Femenino,15,76.33,4.39,Media,Alto,No,Medio,4,Ninguno,tested_negative
51355046,473,13,Otro,10,71.08,3.46,Alta,Bajo,Sí,Bajo,4,Graves,tested_negative
36346503,474,12,Femenino,4,88.64,3.16,Baja,Bajo,No,Bajo,2,Ninguno,tested_negative
30677304,475,12,Masculino,8,78.43,2.36,Baja,Alto,No,Bajo,1,Ninguno,tested_negative
47778688,476,13,Femenino,16,85.58,3.18,Media,Medio,No,Alto,5,Ninguno,tested_negative
66974654,477,14,Femenino,8,86.38,3.13,Media,Alto,Sí,Bajo,5,Leves,tested_negative
22669172,478,11,Femenino,4,92.71,3.5,Alta,Bajo,Sí,Bajo,3,Graves,tested_negative
91322372,479,11,Otro,8,72.0,3.29,Media,Alto,Sí,Alto,2,Graves,tested_negative
21569397,480,17,Femenino,8,64.72,2.8,Media,Bajo,Sí,Medio,4,Graves,tested_positive
10512624,481,11,Masculino,17,69.6,3.26,Alta,Bajo,Sí,Alto,5,Leves,tested_negative
35969707,482,18,Masculino,11,86.86,3.05,Baja,Medio,Sí,Alto,1,Ninguno,tested_negative
93637540,483,15,Otro,16,80.31,3.87,Media,Bajo,Sí,Medio,3,Graves,tested_negative
37521387,484,13,Masculino,9,96.69,2.6,Alta,Bajo,Sí,Medio,1,Leves,tested_negative
85672764,485,13,Femenino,15,99.77,3.92,Alta,Bajo,No,Alto,5,Graves,tested_negative
35972391,486,13,Femenino,12,68.75,2.74,Alta,Medio,Sí,Bajo,1,Graves,tested_negative
20277615,487,16,Masculino,3,100.0,3.4,Alta,Medio,No,Bajo,3,Graves,tested_negative
53602749,488,13,Masculino,8,100.0,2.51,Media,Medio,No,Alto,1,Ninguno,tested_negative
42492082,489,10,Otro,17,98.87,2.97,Baja,Alto,No,Medio,5,Ninguno,tested_negative
62165677,490,16,Otro,3,85.6,2.83,Alta,Alto,Sí,Medio,4,Ninguno,tested_negative
94986439,491,12,Otro,18,87.56,3.37,Media,Medio,No,Bajo,4,Leves,tested_negative
47099789,492,14,Masculino,10,78.26,2.65,Baja,Medio,Sí,Alto,1,Ninguno,tested_negative
94206038,493,15,Otro,9,72.72,3.25,Baja,Medio,No,Medio,4,Ninguno,tested_negative
73271126,494,15,Otro,5,70.28,3.4,Baja,Alto,No,Alto,3,Graves,tested_negative
74239411,495,11,Femenino,12,84.29,3.71,Alta,Medio,No,Medio,2,Ninguno,tested_negative
56197591,496,12,Otro,11,77.24,2.61,Baja,Medio,No,Bajo,3,Leves,tested_negative
45966697,497,10,Masculino,6,90.84,3.12,Baja,Alto,Sí,Medio,4,Graves,tested_positive
43345650,498,14,Masculino,8,88.46,3.49,Baja,Bajo,No,Alto,3,Leves,tested_negative
20384715,499,13,Femenino,11,97.5,3.57,Alta,Bajo,No,Medio,1,Graves,tested_negative
78945136,500,10,Masculino,3,97.84,3.14,Media,Medio,No,Medio,2,Leves,tested_negative
15200857,501,15,Masculino,8,82.78,3.99,Alta,Bajo,No,Medio,5,Ninguno,tested_negative
57842198,502,11,Femenino,13,84.45,3.22,Alta,Medio,No,Bajo,2,Ninguno,tested_negative
34965600,503,13,Otro,19,88.34,3.07,Baja,Medio,No,Bajo,5,Leves,tested_negative
36166172,504,18,Masculino,10,84.2,2.87,Media,Alto,No,Alto,1,Ninguno,tested_negative
77633895,505,14,Masculino,3,100.0,3.69,Alta,Bajo,Sí,Alto,5,Leves,tested_negative
18767403,506,16,Femenino,7,78.15,3.16,Baja,Alto,No,Bajo,2,Graves,tested_negative
74972121,507,17,Femenino,4,92.13,3.38,Alta,Alto,No,Bajo,1,Leves,tested_negative
43119297,508,15,Otro,3,74.72,3.07,Baja,Bajo,Sí,Alto,1,Ninguno,tested_negative
63140998,509,12,Otro,16,89.66,3.9,Media,Alto,No,Medio,5,Leves,tested_negative
64963241,510,16,Otro,17,86.96,3.22,Alta,Medio,Sí,Alto,3,Graves,tested_negative
73547156,511,14,Femenino,13,85.48,3.3,Alta,Alto,Sí,Medio,3,Graves,tested_negative
99364311,512,14,Masculino,6,84.78,2.86,Baja,Alto,Sí,Medio,4,Ninguno,tested_positive
68928532,513,16,Masculino,6,96.85,3.42,Alta,Alto,Sí,Bajo,2,Graves,tested_negative
69685302,514,16,Otro,9,85.9,2.79,Baja,Medio,No,Medio,3,Graves,tested_negative
18745403,515,11,Otro,11,91.64,3.96,Baja,Bajo,Sí,Medio,1,Ninguno,tested_negative
66727807,516,18,Otro,5,80.82,3.49,Baja,Medio,Sí,Medio,1,Ninguno,tested_negative
89397050,517,15,Femenino,26,100.0,4.25,Media,Alto,Sí,Bajo,4,Leves,tested_negative
63055046,518,13,Masculino,3,81.93,3.4,Alta,Medio,Sí,Alto,3,Leves,tested_negative
72916905,519,18,Otro,21,89.3,3.69,Baja,Alto,No,Alto,4,Ninguno,tested_negative
19827144,520,16,Masculino,15,91.18,3.85,Alta,Alto,Sí,Alto,4,Leves,tested_negative
85356840,521,12,Masculino,9,69.43,2.67,Baja,Alto,No,Alto,3,Leves,tested_negative
27900649,522,14,Otro,25,87.63,3.57,Media,Medio,Sí,Bajo,2,Ninguno,tested_negative
17091726,523,18,Masculino,18,84.95,4.02,Alta,Alto,Sí,Alto,2,Graves,tested_negative
29711218,524,12,Masculino,16,92.08,3.21,Baja,Medio,Sí,Alto,4,Leves,tested_negative
99461794,525,12,Masculino,5,67.89,3.29,Baja,Medio,No,Medio,1,Leves,tested_negative
13509114,526,11,Femenino,3,77.58,3.3,Baja,Bajo,Sí,Medio,4,Graves,tested_negative
79170450,527,16,Masculino,11,76.06,3.83,Baja,Medio,Sí,Alto,2,Leves,tested_negative
43164712,528,12,Femenino,9,87.92,3.44,Media,Bajo,Sí,Bajo,4,Graves,tested_negative
93213329,529,12,Femenino,2,95.25,3.15,Alta,Medio,Sí,Bajo,2,Graves,tested_negative
22534948,530,15,Otro,16,88.13,3.64,Media,Alto,No,Medio,2,Graves,tested_negative
72228780,531,13,Masculino,10,97.76,3.4,Media,Alto,Sí,Medio,2,Leves,tested_negative
97531711,532,14,Otro,6,94.35,3.24,Alta,Bajo,No,Alto,1,Graves,tested_negative
65572846,533,18,Otro,12,100.0,3.48,Alta,Bajo,No,Alto,2,Graves,tested_negative
76514074,534,12,Masculino,16,83.11,2.74,Baja,Alto,Sí,Bajo,2,Leves,tested_negative
22603182,535,11,Femenino,19,98.28,3.39,Baja,Bajo,No,Medio,3,Graves,tested_negative
15989143,536,11,Masculino,25,77.19,3.68,Media,Alto,Sí,Bajo,5,Ninguno,tested_negative
83962862,537,10,Otro,17,95.95,3.71,Media,Bajo,Sí,Alto,3,Leves,tested_negative
83687240,538,11,Femenino,14,98.7,4.16,Media,Alto,Sí,Alto,3,Graves,tested_negative
99879131,539,16,Femenino,10,64.62,2.81,Baja,Medio,Sí,Medio,4,Leves,tested_positive
42772158,540,16,Femenino,14,95.6,3.49,Alta,Medio,No,Bajo,5,Leves,tested_negative
71747118,541,16,Otro,5,84.44,3.9,Alta,Bajo,Sí,Bajo,3,Leves,tested_negative
75674475,542,13,Masculino,10,100.0,3.91,Media,Alto,No,Bajo,5,Leves,tested_negative
67668710,543,11,Otro,5,91.31,3.13,Media,Medio,No,Bajo,1,Ninguno,tested_negative
12620555,544,12,Otro,7,75.49,3.22,Media,Medio,No,Medio,5,Leves,tested_negative
47748830,545,10,Otro,5,74.47,2.82,Baja,Bajo,No,Bajo,1,Ninguno,tested_positive
99950305,546,12,Masculino,10,87.1,3.43,Media,Medio,Sí,Medio,2,Ninguno,tested_negative
98457116,547,14,Femenino,9,92.57,3.25,Alta,Bajo,No,Medio,1,Leves,tested_negative
80092711,548,10,Otro,9,75.49,2.38,Media,Bajo,No,Bajo,2,Leves,tested_negative
38153335,549,11,Masculino,6,92.46,3.44,Alta,Bajo,Sí,Alto,1,Graves,tested_negative
98291256,550,11,Masculino,19,74.51,3.3,Alta,Alto,Sí,Alto,3,Leves,tested_negative
90461617,551,18,Femenino,19,97.71,4.44,Alta,Bajo,No,Medio,3,Graves,tested_negative
70690708,552,14,Femenino,19,94.7,4.11,Baja,Bajo,Sí,Alto,3,Graves,tested_negative
19074932,553,17,Femenino,24,95.25,4.06,Media,Medio,No,Bajo,2,Leves,tested_negative
99231940,554,16,Masculino,14,86.21,3.4,Media,Bajo,Sí,Alto,4,Leves,tested_negative
18757249,555,16,Femenino,9,74.27,3.22,Alta,Bajo,No,Alto,4,Graves,tested_negative
23238060,556,13,Masculino,4,83.93,3.28,Media,Bajo,No,Medio,3,Leves,tested_negative
81684187,557,15,Femenino,6,91.54,3.68,Alta,Alto,Sí,Alto,2,Graves,tested_negative
32027985,558,14,Otro,17,82.83,3.37,Alta,Medio,Sí,Medio,3,Leves,tested_negative
84204390,559,11,Otro,9,77.27,2.46,Alta,Medio,Sí,Alto,2,Graves,tested_negative
39261645,560,15,Femenino,22,94.01,3.85,Alta,Alto,No,Medio,3,Leves,tested_negative
69616736,561,15,Otro,20,96.7,3.64,Media,Alto,Sí,Medio,5,Graves,tested_negative
49807346,562,15,Femenino,6,67.37,3.98,Alta,Medio,No,Bajo,2,Graves,tested_negative
68464303,563,15,Masculino,9,64.82,2.11,Alta,Bajo,Sí,Bajo,3,Graves,tested_positive
15773415,564,14,Otro,16,93.11,3.53,Media,Alto,Sí,Alto,3,Ninguno,tested_negative
75086752,565,14,Masculino,7,79.79,3.52,Media,Medio,Sí,Bajo,1,Ninguno,tested_negative
72345882,566,17,Masculino,11,88.21,4.15,Baja,Medio,Sí,Alto,2,Graves,tested_negative
25676972,567,13,Masculino,11,100.0,3.25,Baja,Alto,No,Bajo,5,Graves,tested_negative
43917654,568,14,Otro,6,70.98,3.46,Alta,Bajo,No,Bajo,3,Graves,tested_negative
28413337,569,18,Otro,9,82.69,3.65,Media,Bajo,No,Medio,3,Graves,tested_negative
55884986,570,14,Masculino,2,94.73,4.08,Alta,Bajo,Sí,Bajo,3,Ninguno,tested_negative
79601908,571,10,Masculino,7,72.98,3.36,Alta,Medio,No,Medio,1,Graves,tested_negative
47685732,572,18,Otro,9,92.93,2.99,Media,Bajo,No,Bajo,2,Ninguno,tested_negative
78835951,573,14,Otro,9,88.12,3.76,Media,Bajo,No,Bajo,4,Leves,tested_negative
84810000,574,10,Femenino,8,92.37,3.63,Alta,Bajo,Sí,Medio,4,Leves,tested_negative
51205674,575,16,Masculino,13,68.24,2.85,Alta,Alto,Sí,Medio,3,Graves,tested_negative
97756403,576,11,Femenino,3,74.44,2.39,Alta,Alto,No,Medio,4,Ninguno,tested_negative
36934976,577,15,Femenino,14,88.81,3.93,Media,Alto,No,Alto,1,Graves,tested_negative
53792050,578,12,Otro,21,73.69,3.18,Baja,Medio,Sí,Medio,2,Ninguno,tested_negative
72837326,579,17,Otro,9,95.13,3.97,Baja,Bajo,Sí,Alto,5,Leves,tested_negative
99926672,580,17,Femenino,18,75.58,3.43,Media,Bajo,No,Alto,1,Graves,tested_negative
45817209,581,11,Masculino,6,73.38,2.92,Alta,Alto,No,Alto,1,Ninguno,tested_negative
97808399,582,17,Otro,7,77.81,2.6,Alta,Medio,Sí,Bajo,3,Leves,tested_negative
74273235,583,18,Femenino,19,83.69,3.76,Media,Bajo,Sí,Bajo,2,Ninguno,tested_negative
74225476,584,12,Masculino,19,70.11,2.96,Alta,Bajo,No,Alto,3,Leves,tested_negative
61754930,585,18,Otro,8,88.66,3.71,Alta,Bajo,No,Medio,1,Graves,tested_negative
32791193,586,11,Femenino,8,74.35,2.81,Baja,Bajo,No,Bajo,2,Ninguno,tested_negative
49761913,587,18,Femenino,10,91.24,3.11,Alta,Alto,Sí,Medio,2,Graves,tested_negative
91540675,588,17,Otro,9,85.12,3.04,Alta,Alto,No,Medio,4,Leves,tested_negative
18346334,589,18,Femenino,15,62.09,2.61,Media,Alto,Sí,Medio,2,Ninguno,tested_positive
38023163,590,16,Femenino,14,88.4,3.55,Alta,Alto,No,Medio,1,Graves,tested_negative
56015845,591,10,Masculino,21,84.82,3.72,Alta,Alto,Sí,Medio,1,Leves,tested_negative
64413086,592,10,Otro,4,76.12,3.75,Media,Alto,No,Medio,4,Leves,tested_negative
18947871,593,17,Masculino,14,83.12,3.75,Alta,Medio,Sí,Medio,3,Graves,tested_negative
42945607,594,14,Femenino,10,91.33,3.75,Media,Bajo,Sí,Alto,4,Graves,tested_negative
90203784,595,15,Femenino,12,85.2,3.49,Alta,Bajo,Sí,Bajo,2,Leves,tested_negative
67996152,596,10,Masculino,7,84.5,2.59,Media,Alto,No,Bajo,3,Leves,tested_negative
93621879,597,11,Femenino,15,83.56,3.64,Baja,Bajo,Sí,Bajo,1,Leves,tested_negative
24909842,598,15,Otro,12,76.65,3.84,Media,Medio,Sí,Bajo,1,Graves,tested_negative
41826181,599,12,Otro,4,79.15,3.61,Alta,Bajo,Sí,Bajo,4,Ninguno,tested_negative
65974724,600,11,Masculino,8,84.89,3.27,Alta,Medio,No,Alto,4,Ninguno,tested_negative
88307128,601,14,Masculino,34,89.87,3.73,Alta,Medio,Sí,Alto,5,Leves,tested_negative
25380860,602,15,Otro,4,75.39,3.01,Media,Alto,Sí,Alto,2,Ninguno,tested_negative
14458720,603,11,Femenino,18,98.65,3.82,Media,Alto,No,Medio,4,Leves,tested_negative
61937359,604,13,Otro,8,88.97,3.67,Alta,Bajo,Sí,Medio,3,Leves,tested_negative
30037367,605,10,Femenino,15,90.41,3.73,Alta,Alto,Sí,Bajo,5,Leves,tested_negative
82779418,606,14,Otro,15,69.43,3.07,Media,Bajo,No,Alto,3,Graves,tested_negative
36538597,607,12,Femenino,9,84.16,2.96,Alta,Medio,Sí,Medio,2,Graves,tested_negative
20843378,608,15,Femenino,12,85.32,4.15,Alta,Medio,No,Medio,3,Leves,tested_negative
60185948,609,12,Masculino,5,71.21,2.96,Media,Bajo,No,Alto,5,Ninguno,tested_negative
34738870,610,17,Masculino,10,87.89,3.48,Alta,Alto,No,Alto,1,Ninguno,tested_negative
98148246,611,11,Femenino,3,67.46,2.8,Alta,Medio,No,Bajo,4,Leves,tested_negative
65085627,612,14,Femenino,12,86.6,3.21,Media,Medio,Sí,Medio,1,Ninguno,tested_negative
88183022,613,18,Femenino,18,84.76,3.08,Alta,Bajo,No,Alto,1,Graves,tested_negative
81784966,614,15,Femenino,25,99.17,3.6,Media,Medio,Sí,Bajo,1,Ninguno,tested_negative
95588808,615,18,Otro,7,100.0,3.86,Baja,Bajo,No,Medio,1,Graves,tested_negative
61177059,616,11,Otro,15,84.93,2.81,Media,Bajo,No,Alto,5,Graves,tested_negative
47086477,617,18,Masculino,9,63.87,3.04,Media,Bajo,Sí,Medio,2,Graves,tested_negative
54389437,618,18,Otro,9,76.25,3.21,Alta,Medio,Sí,Medio,5,Graves,tested_negative
27527497,619,17,Masculino,18,87.23,4.09,Alta,Alto,No,Alto,3,Ninguno,tested_negative
93029793,620,15,Femenino,13,85.62,3.31,Alta,Medio,No,Alto,5,Leves,tested_negative
80432313,621,16,Femenino,8,85.33,3.63,Baja,Bajo,Sí,Medio,5,Leves,tested_negative
71359631,622,17,Femenino,29,82.04,4.36,Alta,Bajo,No,Alto,5,Ninguno,tested_negative
98844497,623,17,Otro,8,79.27,3.31,Media,Medio,Sí,Alto,3,Ninguno,tested_negative
18668475,624,16,Otro,1,71.86,1.97,Media,Bajo,Sí,Alto,1,Ninguno,tested_negative
63638796,625,14,Femenino,4,74.8,3.22,Media,Alto,Sí,Alto,5,Ninguno,tested_negative
14258754,626,12,Femenino,9,66.03,2.64,Alta,Alto,Sí,Bajo,5,Leves,tested_positive
87733948,627,15,Otro,20,94.34,3.74,Media,Alto,No,Medio,4,Leves,tested_negative
50704180,628,16,Masculino,26,83.17,3.34,Alta,Alto,Sí,Bajo,2,Ninguno,tested_negative
94181379,629,18,Masculino,13,75.93,3.3,Alta,Medio,Sí,Bajo,5,Ninguno,tested_negative
21007712,630,10,Otro,14,71.1,3.07,Baja,Alto,Sí,Bajo,4,Graves,tested_negative
44571970,631,17,Femenino,10,78.57,2.79,Media,Alto,No,Bajo,1,Ninguno,tested_negative
82544723,632,15,Femenino,10,72.95,2.98,Media,Alto,No,Medio,2,Leves,tested_negative
96265634,633,12,Femenino,8,66.6,2.93,Alta,Medio,Sí,Medio,2,Leves,tested_negative
56198503,634,12,Otro,14,87.88,3.55,Baja,Medio,Sí,Medio,2,Ninguno,tested_negative
14629119,635,10,Femenino,21,100.0,4.27,Alta,Bajo,Sí,Bajo,5,Ninguno,tested_negative
77792542,636,13,Otro,11,84.09,3.38,Alta,Bajo,No,Alto,5,Graves,tested_negative
23424300,637,13,Otro,19,90.97,3.8,Baja,Alto,No,Medio,4,Leves,tested_negative
90319696,638,11,Otro,25,88.7,3.77,Media,Medio,Sí,Medio,5,Graves,tested_negative
73474846,639,12,Otro,9,76.28,3.15,Alta,Medio,No,Medio,5,Ninguno,tested_negative
28908742,640,10,Masculino,33,72.92,3.98,Baja,Medio,No,Bajo,5,Graves,tested_negative
91453921,641,14,Femenino,11,92.08,3.26,Alta,Bajo,No,Alto,4,Ninguno,tested_negative
90192427,642,12,Femenino,3,84.08,3.11,Baja,Medio,No,Alto,2,Leves,tested_negative
62007370,643,13,Masculino,13,77.75,2.85,Alta,Bajo,No,Medio,2,Graves,tested_negative
50303999,644,17,Masculino,5,89.04,3.34,Baja,Alto,No,Bajo,3,Ninguno,tested_negative
69251344,645,13,Masculino,10,98.9,3.7,Baja,Bajo,Sí,Bajo,3,Leves,tested_negative
20247806,646,11,Masculino,15,95.51,3.4,Alta,Bajo,Sí,Medio,1,Leves,tested_negative
73789346,647,10,Femenino,14,100.0,4.18,Alta,Bajo,Sí,Medio,1,Graves,tested_negative
38591684,648,17,Femenino,14,83.29,2.67,Media,Bajo,Sí,Medio,5,Ninguno,tested_negative
36426316,649,17,Otro,7,78.72,3.11,Baja,Medio,Sí,Bajo,3,Ninguno,tested_negative
34443199,650,13,Masculino,12,86.25,3.38,Media,Bajo,Sí,Medio,5,Ninguno,tested_negative
69888416,651,14,Femenino,12,90.69,3.59,Alta,Alto,No,Alto,2,Ninguno,tested_negative
41334852,652,11,Masculino,11,71.99,3.26,Media,Alto,Sí,Bajo,5,Graves,tested_negative
66762635,653,18,Femenino,12,79.33,3.88,Baja,Alto,No,Medio,1,Graves,tested_negative
39620162,654,17,Masculino,2,85.7,3.0,Media,Medio,No,Alto,5,Graves,tested_negative
11552913,655,14,Otro,10,79.46,3.53,Alta,Medio,No,Medio,1,Ninguno,tested_negative
84715803,656,10,Masculino,1,75.37,3.23,Baja,Medio,No,Medio,3,Graves,tested_negative
75557194,657,18,Femenino,7,87.26,2.93,Media,Alto,No,Medio,4,Ninguno,tested_negative
12051887,658,15,Femenino,15,76.72,2.75,Alta,Medio,Sí,Bajo,2,Leves,tested_negative
67834103,659,14,Femenino,5,90.38,3.16,Baja,Bajo,No,Medio,2,Leves,tested_negative
68164212,660,16,Femenino,2,94.25,3.43,Alta,Bajo,Sí,Alto,2,Ninguno,tested_negative
92638400,661,13,Femenino,23,68.63,3.78,Alta,Medio,Sí,Medio,1,Graves,tested_negative
89634670,662,10,Otro,7,85.27,2.81,Alta,Alto,Sí,Medio,4,Graves,tested_positive
42796551,663,12,Masculino,9,80.55,3.05,Baja,Alto,Sí,Alto,3,Ninguno,tested_negative
24207613,664,12,Femenino,1,96.94,3.56,Media,Bajo,Sí,Alto,5,Graves,tested_negative
55482609,665,16,Otro,13,85.31,3.42,Media,Bajo,No,Bajo,1,Leves,tested_negative
93934333,666,13,Femenino,13,95.03,4.07,Baja,Medio,No,Medio,3,Graves,tested_negative
72659879,667,15,Otro,9,92.68,3.04,Media,Bajo,Sí,Bajo,1,Ninguno,tested_negative
77290731,668,13,Masculino,12,91.49,3.39,Alta,Alto,Sí,Medio,4,Leves,tested_negative
92866277,669,10,Otro,4,86.83,3.61,Media,Alto,No,Alto,4,Ninguno,tested_negative
29453038,670,18,Femenino,9,64.74,2.63,Alta,Medio,No,Medio,2,Ninguno,tested_negative
13703453,671,10,Otro,7,89.1,3.36,Media,Bajo,No,Bajo,1,Ninguno,tested_negative
65348892,672,13,Femenino,9,99.42,3.97,Media,Medio,Sí,Bajo,1,Leves,tested_negative
34903064,673,16,Masculino,16,71.94,3.02,Media,Alto,Sí,Medio,2,Graves,tested_negative
21231160,674,17,Otro,17,80.47,3.76,Alta,Alto,No,Bajo,1,Graves,tested_negative
58333512,675,16,Masculino,6,89.05,3.48,Alta,Bajo,No,Bajo,4,Graves,tested_negative
60985313,676,13,Femenino,9,89.39,3.14,Baja,Bajo,Sí,Medio,2,Graves,tested_negative
51753155,677,14,Masculino,5,63.72,2.43,Media,Medio,No,Alto,5,Graves,tested_positive
47026654,678,16,Femenino,5,87.34,3.57,Media,Medio,No,Medio,5,Graves,tested_negative
72097372,679,17,Femenino,12,79.18,3.78,Media,Medio,No,Alto,5,Leves,tested_negative
66336919,680,11,Masculino,16,84.95,3.65,Baja,Medio,No,Bajo,3,Leves,tested_negative
21555831,681,13,Otro,9,91.42,3.36,Alta,Alto,Sí,Medio,5,Leves,tested_negative
60801871,682,18,Femenino,19,70.29,3.41,Alta,Alto,No,Bajo,2,Graves,tested_negative
85433816,683,15,Femenino,15,90.81,3.36,Alta,Bajo,Sí,Bajo,5,Graves,tested_negative
50161885,684,13,Masculino,4,96.39,2.92,Baja,Bajo,Sí,Bajo,1,Graves,tested_positive
48606626,685,12,Masculino,9,84.55,3.55,Media,Alto,Sí,Medio,1,Leves,tested_negative
94059925,686,16,Masculino,17,87.38,3.52,Baja,Alto,No,Alto,5,Ninguno,tested_negative
24715948,687,12,Masculino,20,87.06,3.78,Media,Medio,No,Alto,3,Ninguno,tested_negative
61328830,688,13,Otro,7,51.51,2.33,Media,Alto,No,Alto,5,Graves,tested_positive
51892167,689,16,Femenino,10,82.03,3.15,Alta,Bajo,Sí,Bajo,2,Ninguno,tested_negative
76946805,690,14,Femenino,9,80.13,2.8,Baja,Medio,Sí,Medio,1,Leves,tested_negative
83999110,691,14,Masculino,11,80.46,2.62,Baja,Medio,Sí,Medio,2,Leves,tested_negative
68293749,692,14,Masculino,4,73.24,3.49,Alta,Alto,Sí,Alto,4,Leves,tested_negative
22234674,693,16,Masculino,12,85.07,3.35,Media,Alto,Sí,Bajo,2,Graves,tested_negative
24358263,694,17,Otro,3,90.78,4.21,Media,Alto,No,Bajo,2,Ninguno,tested_negative
93666116,695,13,Masculino,6,100.0,3.48,Alta,Bajo,No,Medio,2,Leves,tested_negative
20591111,696,16,Femenino,29,79.96,3.51,Alta,Alto,Sí,Alto,4,Graves,tested_negative
75861754,697,10,Femenino,5,75.44,3.55,Alta,Bajo,Sí,Alto,3,Ninguno,tested_negative
43779443,698,12,Otro,5,88.14,3.88,Baja,Bajo,No,Medio,3,Graves,tested_negative
92354462,699,14,Otro,10,75.43,2.47,Media,Medio,Sí,Medio,3,Graves,tested_negative
37977933,700,16,Otro,20,95.66,3.39,Alta,Alto,Sí,Alto,1,Leves,tested_negative
12298627,701,17,Femenino,23,97.04,4.08,Alta,Bajo,No,Bajo,2,Leves,tested_negative
97276296,702,14,Otro,9,87.92,3.39,Baja,Medio,No,Alto,3,Graves,tested_negative
40795152,703,14,Otro,17,74.43,3.56,Media,Bajo,No,Bajo,5,Ninguno,tested_negative
43298038,704,12,Masculino,7,95.2,3.48,Baja,Bajo,Sí,Alto,4,Graves,tested_negative
42811206,705,16,Masculino,19,100.0,3.66,Media,Alto,Sí,Medio,5,Ninguno,tested_negative
40229572,706,12,Otro,13,79.11,3.71,Alta,Medio,No,Alto,3,Graves,tested_negative
72719560,707,18,Otro,4,82.48,2.98,Media,Medio,No,Bajo,5,Graves,tested_positive
83773483,708,12,Femenino,8,94.55,3.46,Media,Medio,No,Bajo,5,Graves,tested_negative
81616164,709,18,Femenino,2,77.51,3.14,Baja,Medio,No,Medio,4,Leves,tested_negative
51970221,710,15,Masculino,9,88.87,3.63,Media,Bajo,Sí,Alto,1,Leves,tested_negative
65005190,711,14,Otro,11,75.59,3.37,Media,Bajo,No,Bajo,4,Leves,tested_negative
28699986,712,16,Masculino,10,89.18,3.33,Baja,Medio,No,Medio,2,Graves,tested_negative
43399152,713,12,Otro,5,74.37,3.07,Baja,Medio,Sí,Alto,2,Graves,tested_negative
42896251,714,15,Masculino,12,83.73,3.19,Alta,Medio,Sí,Bajo,5,Ninguno,tested_negative
26828484,715,17,Otro,10,100.0,3.42,Baja,Medio,Sí,Bajo,2,Graves,tested_negative
22894026,716,18,Femenino,16,87.38,3.51,Baja,Alto,No,Medio,2,Ninguno,tested_negative
39545394,717,12,Femenino,16,69.36,3.02,Media,Alto,Sí,Medio,2,Leves,tested_negative
38736247,718,10,Masculino,11,94.46,3.07,Alta,Bajo,No,Alto,3,Leves,tested_negative
18918086,719,11,Otro,13,79.89,3.18,Media,Bajo,No,Medio,5,Graves,tested_negative
93483355,720,18,Otro,6,82.42,2.6,Media,Alto,Sí,Medio,1,Ninguno,tested_negative
82632099,721,11,Otro,3,83.36,3.13,Baja,Bajo,No,Bajo,1,Leves,tested_negative
84426748,722,15,Femenino,22,95.87,3.41,Alta,Bajo,Sí,Medio,2,Leves,tested_negative
25971986,723,17,Femenino,15,80.66,3.27,Baja,Bajo,No,Medio,4,Graves,tested_negative
44405708,724,12,Otro,5,83.2,3.05,Media,Alto,Sí,Medio,4,Graves,tested_negative
67373517,725,16,Otro,10,81.97,2.87,Media,Bajo,Sí,Medio,2,Graves,tested_negative
56800413,726,14,Otro,19,100.0,3.68,Baja,Medio,Sí,Alto,5,Leves,tested_negative
43050665,727,11,Otro,18,81.41,2.95,Baja,Bajo,Sí,Alto,2,Leves,tested_positive
65113445,728,14,Masculino,11,89.65,3.31,Alta,Medio,Sí,Medio,2,Graves,tested_negative
85603726,729,11,Femenino,18,93.04,3.72,Baja,Bajo,Sí,Alto,3,Leves,tested_negative
71466203,730,13,Femenino,10,81.19,3.85,Baja,Medio,Sí,Medio,2,Graves,tested_negative
15230368,731,16,Otro,13,100.0,3.67,Media,Alto,Sí,Bajo,2,Ninguno,tested_negative
65087628,732,18,Femenino,16,68.83,3.06,Baja,Bajo,Sí,Bajo,2,Ninguno,tested_negative
53312282,733,10,Masculino,7,71.88,2.29,Media,Medio,Sí,Bajo,1,Leves,tested_positive
33663031,734,10,Femenino,8,59.94,2.64,Media,Alto,Sí,Alto,1,Graves,tested_positive
41312544,735,15,Masculino,22,64.81,3.02,Alta,Alto,Sí,Alto,2,Ninguno,tested_negative
63500831,736,10,Femenino,10,100.0,3.66,Baja,Medio,Sí,Bajo,4,Ninguno,tested_negative
48423417,737,13,Masculino,0,86.04,3.22,Baja,Bajo,No,Bajo,4,Leves,tested_negative
16908410,738,11,Masculino,5,79.1,3.06,Media,Alto,Sí,Alto,3,Graves,tested_negative
69484544,739,12,Otro,16,84.69,3.55,Media,Bajo,Sí,Bajo,1,Ninguno,tested_negative
45327413,740,18,Otro,11,100.0,3.75,Media,Alto,Sí,Alto,5,Graves,tested_negative
34519528,741,16,Femenino,8,83.73,3.1,Media,Bajo,Sí,Alto,1,Leves,tested_negative
17249961,742,12,Femenino,5,83.97,3.32,Alta,Alto,Sí,Alto,5,Graves,tested_negative
74376106,743,15,Otro,6,98.92,3.56,Baja,Bajo,No,Alto,4,Graves,tested_negative
25647195,744,13,Femenino,9,83.44,3.01,Baja,Alto,No,Bajo,4,Graves,tested_negative
20967494,745,10,Masculino,18,80.8,3.65,Alta,Alto,No,Medio,3,Ninguno,tested_negative
40943590,746,18,Otro,2,60.66,2.83,Alta,Medio,No,Medio,3,Ninguno,tested_negative
24857044,747,14,Otro,6,82.74,3.24,Media,Alto,Sí,Bajo,1,Leves,tested_negative
41268907,748,14,Otro,6,77.05,2.42,Alta,Medio,No,Medio,2,Ninguno,tested_negative
64492592,749,18,Otro,14,82.3,3.57,Media,Medio,No,Alto,1,Leves,tested_negative
46648517,750,11,Otro,10,85.18,2.84,Baja,Bajo,No,Bajo,1,Graves,tested_positive
70817416,751,14,Otro,6,71.99,2.99,Baja,Bajo,Sí,Medio,3,Graves,tested_positive
51640138,752,15,Masculino,20,69.99,2.97,Baja,Bajo,No,Medio,1,Leves,tested_negative
89187989,753,17,Otro,11,83.32,3.95,Baja,Medio,No,Medio,4,Leves,tested_negative
54984530,754,17,Femenino,3,83.74,3.0,Media,Medio,Sí,Medio,3,Ninguno,tested_negative
50296275,755,16,Masculino,22,61.83,2.85,Media,Alto,No,Medio,4,Graves,tested_positive
25722522,756,15,Masculino,14,89.58,3.9,Media,Medio,Sí,Alto,5,Leves,tested_negative
91480376,757,17,Masculino,5,85.23,3.12,Media,Medio,Sí,Alto,2,Graves,tested_negative
79464698,758,14,Femenino,13,86.05,3.18,Baja,Bajo,No,Medio,3,Ninguno,tested_negative
97048921,759,12,Masculino,1,79.93,3.44,Baja,Alto,No,Alto,1,Leves,tested_negative
44007605,760,17,Otro,18,100.0,3.52,Alta,Medio,No,Alto,2,Leves,tested_negative
46040888,761,12,Otro,9,76.55,2.92,Media,Bajo,Sí,Medio,3,Leves,tested_negative
94607213,762,17,Femenino,6,100.0,3.28,Media,Alto,Sí,Alto,3,Graves,tested_negative
97089754,763,15,Otro,3,67.95,3.14,Alta,Bajo,Sí,Medio,4,Leves,tested_negative
56579833,764,14,Otro,14,97.63,4.28,Media,Medio,Sí,Alto,2,Ninguno,tested_negative
87414034,765,17,Masculino,17,76.32,2.9,Media,Bajo,Sí,Bajo,3,Graves,tested_positive
96872085,766,14,Femenino,25,70.35,3.56,Media,Medio,Sí,Alto,5,Graves,tested_negative
83026740,767,17,Femenino,13,90.08,2.44,Alta,Alto,No,Alto,5,Ninguno,tested_negative
79745263,768,15,Otro,4,74.79,3.12,Media,Bajo,Sí,Bajo,5,Leves,tested_negative
52229776,769,15,Masculino,4,94.99,3.45,Media,Bajo,No,Alto,5,Ninguno,tested_negative
98110665,770,15,Femenino,7,86.08,2.56,Media,Bajo,No,Bajo,4,Ninguno,tested_negative
90972952,771,12,Masculino,36,77.46,4.47,Baja,Medio,No,Alto,4,Ninguno,tested_negative
39323643,772,14,Otro,9,98.31,3.64,Media,Bajo,Sí,Medio,4,Graves,tested_negative
43271566,773,10,Otro,9,72.6,3.09,Media,Bajo,No,Medio,2,Graves,tested_negative
75553044,774,17,Femenino,12,93.16,3.84,Alta,Medio,Sí,Alto,5,Ninguno,tested_negative
29769304,775,14,Masculino,20,75.96,3.37,Alta,Bajo,No,Medio,1,Ninguno,tested_negative
58922626,776,14,Masculino,8,100.0,3.58,Alta,Alto,Sí,Medio,3,Ninguno,tested_negative
22014017,777,10,Masculino,26,79.73,3.09,Alta,Bajo,Sí,Bajo,3,Ninguno,tested_negative
74587827,778,18,Masculino,12,76.41,2.51,Baja,Alto,No,Alto,1,Leves,tested_negative
52746575,779,15,Femenino,23,86.88,3.44,Alta,Medio,Sí,Bajo,3,Graves,tested_negative
82689848,780,15,Masculino,5,85.08,3.28,Alta,Alto,No,Alto,5,Graves,tested_negative
56347050,781,16,Femenino,9,83.1,3.76,Baja,Alto,Sí,Bajo,1,Leves,tested_negative
63438970,782,11,Femenino,19,88.35,3.0,Media,Medio,Sí,Medio,4,Ninguno,tested_negative
65162097,783,11,Femenino,6,95.9,4.56,Baja,Medio,Sí,Bajo,1,Graves,tested_negative
18242773,784,12,Otro,5,85.66,3.49,Media,Bajo,No,Bajo,3,Leves,tested_negative
74958434,785,16,Otro,10,94.04,3.73,Alta,Medio,Sí,Medio,1,Leves,tested_negative
22576664,786,10,Femenino,12,88.17,3.96,Baja,Alto,Sí,Medio,4,Ninguno,tested_negative
57217110,787,11,Otro,2,100.0,3.07,Baja,Bajo,Sí,Bajo,5,Graves,tested_positive
40663360,788,10,Femenino,5,79.5,2.67,Baja,Alto,Sí,Medio,2,Graves,tested_positive
99885934,789,15,Femenino,8,91.06,4.1,Baja,Medio,Sí,Alto,1,Graves,tested_negative
12975507,790,10,Femenino,29,89.35,4.26,Alta,Alto,No,Alto,5,Graves,tested_negative
53036871,791,18,Otro,11,93.87,3.41,Alta,Medio,No,Medio,1,Ninguno,tested_negative
74508859,792,18,Masculino,10,85.14,2.8,Media,Bajo,No,Alto,3,Ninguno,tested_negative
30032561,793,12,Masculino,2,86.11,2.9,Alta,Medio,Sí,Medio,3,Leves,tested_negative
64525669,794,10,Masculino,7,69.56,2.31,Baja,Medio,No,Bajo,3,Ninguno,tested_negative
38229369,795,12,Otro,10,86.18,3.25,Media,Medio,No,Bajo,1,Ninguno,tested_negative
80955171,796,12,Masculino,5,86.87,3.19,Media,Alto,Sí,Medio,4,Graves,tested_negative
91750914,797,12,Femenino,5,86.92,2.68,Media,Medio,No,Medio,1,Graves,tested_negative
64527330,798,11,Otro,5,94.58,2.49,Media,Medio,No,Alto,2,Ninguno,tested_negative
27550886,799,18,Otro,5,94.06,4.03,Baja,Alto,Sí,Alto,1,Ninguno,tested_negative
92553500,800,11,Femenino,12,74.08,3.81,Baja,Alto,Sí,Medio,2,Ninguno,tested_negative
63434109,801,17,Masculino,11,70.94,3.37,Baja,Bajo,Sí,Alto,4,Graves,tested_negative
55661973,802,13,Masculino,5,90.97,2.82,Alta,Alto,No,Medio,3,Leves,tested_negative
29488282,803,10,Femenino,8,92.82,3.82,Media,Medio,No,Medio,3,Graves,tested_negative
60355962,804,12,Otro,8,100.0,4.5,Media,Medio,Sí,Medio,5,Leves,tested_negative
58226039,805,15,Femenino,14,77.14,3.27,Alta,Bajo,Sí,Alto,1,Leves,tested_negative
50149496,806,17,Masculino,12,78.11,3.35,Baja,Bajo,No,Alto,1,Leves,tested_negative
51169587,807,11,Femenino,8,100.0,3.58,Baja,Alto,No,Medio,5,Ninguno,tested_negative
75754672,808,17,Masculino,1,91.77,3.15,Media,Medio,No,Alto,5,Graves,tested_negative
46397347,809,11,Femenino,11,73.91,3.81,Media,Alto,Sí,Medio,5,Ninguno,tested_negative
90818686,810,10,Otro,17,94.87,3.77,Media,Medio,No,Medio,4,Ninguno,tested_negative
50509084,811,16,Femenino,16,91.75,3.54,Alta,Bajo,Sí,Bajo,1,Ninguno,tested_negative
79024826,812,14,Femenino,19,99.34,3.81,Baja,Alto,Sí,Alto,4,Leves,tested_negative
77771374,813,12,Masculino,5,90.42,3.37,Baja,Bajo,Sí,Bajo,1,Ninguno,tested_negative
80638010,814,17,Femenino,6,100.0,3.65,Media,Alto,Sí,Medio,2,Ninguno,tested_negative
66149923,815,15,Otro,9,81.6,3.96,Baja,Alto,No,Bajo,5,Ninguno,tested_negative
97724040,816,11,Femenino,26,100.0,3.83,Media,Bajo,Sí,Bajo,1,Ninguno,tested_negative
35188839,817,15,Femenino,24,98.18,3.82,Baja,Medio,Sí,Alto,4,Graves,tested_negative
77694166,818,12,Femenino,17,90.94,4.15,Baja,Bajo,No,Bajo,1,Graves,tested_negative
66474205,819,18,Femenino,23,87.21,3.25,Media,Alto,No,Bajo,4,Ninguno,tested_negative
28905946,820,13,Femenino,3,88.59,2.7,Media,Bajo,No,Alto,4,Ninguno,tested_negative
11108526,821,10,Femenino,5,90.6,2.47,Media,Medio,Sí,Alto,4,Leves,tested_negative
15315701,822,13,Otro,3,93.11,3.37,Alta,Medio,Sí,Medio,2,Leves,tested_negative
17082937,823,12,Masculino,11,78.56,3.18,Media,Medio,No,Bajo,3,Leves,tested_negative
25908580,824,12,Femenino,15,87.54,3.53,Media,Medio,No,Medio,5,Leves,tested_negative
79713700,825,15,Masculino,14,93.34,3.09,Media,Bajo,No,Alto,4,Graves,tested_negative
32687358,826,11,Otro,14,76.55,3.12,Baja,Bajo,No,Alto,1,Leves,tested_negative
36041356,827,11,Femenino,14,98.95,4.03,Alta,Alto,Sí,Bajo,1,Ninguno,tested_negative
52825054,828,17,Femenino,20,80.69,3.44,Baja,Alto,Sí,Bajo,2,Graves,tested_negative
91919988,829,11,Femenino,11,83.11,2.92,Media,Bajo,No,Alto,5,Ninguno,tested_negative
32572573,830,14,Masculino,18,82.02,3.52,Media,Alto,Sí,Alto,1,Ninguno,tested_negative
23797975,831,17,Otro,7,92.1,2.73,Media,Medio,Sí,Medio,3,Graves,tested_positive
45227693,832,14,Masculino,24,81.69,3.08,Baja,Bajo,No,Bajo,1,Graves,tested_negative
96634154,833,14,Otro,4,81.27,3.08,Alta,Alto,No,Medio,1,Ninguno,tested_negative
18951990,834,11,Femenino,19,75.78,3.74,Media,Bajo,No,Bajo,1,Graves,tested_negative
30678309,835,16,Otro,16,96.61,3.8,Baja,Alto,No,Alto,3,Ninguno,tested_negative
69071538,836,12,Masculino,7,94.68,2.99,Alta,Alto,No,Alto,5,Ninguno,tested_negative
21580532,837,18,Masculino,6,81.66,3.4,Media,Bajo,Sí,Bajo,4,Ninguno,tested_negative
42134062,838,18,Femenino,19,93.93,3.64,Media,Medio,Sí,Alto,5,Ninguno,tested_negative
41945761,839,18,Femenino,6,92.89,3.16,Baja,Bajo,No,Bajo,5,Graves,tested_negative
17849075,840,15,Masculino,32,87.62,4.07,Baja,Alto,No,Medio,4,Graves,tested_negative
10641724,841,10,Otro,9,75.43,2.99,Alta,Bajo,Sí,Alto,4,Graves,tested_positive
21284152,842,10,Masculino,4,74.46,3.39,Media,Bajo,Sí,Alto,3,Ninguno,tested_negative
25738104,843,13,Masculino,14,82.82,3.23,Baja,Medio,Sí,Alto,2,Graves,tested_negative
23441687,844,12,Masculino,11,82.25,3.31,Media,Medio,Sí,Medio,3,Ninguno,tested_negative
46130924,845,18,Otro,15,68.24,3.13,Alta,Bajo,No,Medio,2,Leves,tested_negative
62209082,846,14,Otro,6,87.42,3.49,Baja,Alto,Sí,Alto,5,Graves,tested_negative
40933500,847,11,Femenino,22,91.55,4.1,Baja,Bajo,Sí,Alto,5,Ninguno,tested_negative
55326426,848,15,Otro,6,75.93,3.15,Media,Medio,No,Alto,1,Ninguno,tested_negative
78818772,849,10,Otro,11,82.03,3.33,Baja,Bajo,Sí,Medio,4,Leves,tested_negative
94431045,850,16,Masculino,16,91.31,3.61,Baja,Medio,Sí,Alto,2,Graves,tested_negative
43317934,851,18,Otro,17,68.39,2.99,Media,Medio,Sí,Alto,2,Graves,tested_negative
64381558,852,10,Femenino,22,89.83,3.56,Media,Medio,No,Bajo,4,Ninguno,tested_negative
50861207,853,14,Otro,9,80.99,3.17,Alta,Alto,No,Alto,2,Ninguno,tested_negative
74500288,854,16,Femenino,9,80.03,3.39,Baja,Alto,No,Bajo,4,Graves,tested_negative
44156307,855,12,Otro,11,73.63,3.21,Media,Alto,Sí,Alto,5,Ninguno,tested_negative
99283551,856,16,Otro,4,94.88,2.91,Alta,Bajo,No,Bajo,1,Ninguno,tested_negative
51323897,857,12,Masculino,8,100.0,3.51,Alta,Alto,Sí,Medio,4,Graves,tested_negative
93700542,858,13,Otro,15,81.43,2.66,Alta,Medio,Sí,Bajo,2,Graves,tested_negative
82998673,859,14,Masculino,6,100.0,3.65,Media,Alto,Sí,Medio,4,Graves,tested_negative
41515137,860,18,Femenino,19,72.64,4.05,Media,Alto,Sí,Medio,1,Leves,tested_negative
64020238,861,10,Femenino,18,86.96,3.88,Alta,Bajo,No,Alto,1,Leves,tested_negative
14176870,862,12,Femenino,5,99.4,3.05,Media,Medio,Sí,Medio,1,Leves,tested_negative
39463191,863,15,Femenino,13,65.45,3.43,Baja,Medio,No,Medio,5,Leves,tested_negative
80200624,864,15,Masculino,13,87.3,3.46,Alta,Bajo,Sí,Medio,2,Graves,tested_negative
16185310,865,13,Otro,14,88.45,3.32,Alta,Alto,Sí,Bajo,2,Ninguno,tested_negative
26758143,866,15,Masculino,1,92.73,3.34,Media,Bajo,No,Bajo,2,Graves,tested_negative
76993071,867,17,Femenino,3,79.3,2.26,Media,Bajo,Sí,Medio,1,Ninguno,tested_negative
76586350,868,17,Otro,6,81.52,3.43,Alta,Alto,No,Medio,5,Graves,tested_negative
30160318,869,11,Otro,5,70.81,2.11,Baja,Alto,Sí,Alto,2,Ninguno,tested_negative
48575575,870,12,Femenino,9,80.36,3.55,Media,Alto,No,Alto,5,Leves,tested_negative
89028190,871,12,Femenino,3,81.94,3.04,Media,Bajo,Sí,Bajo,2,Graves,tested_negative
14830057,872,15,Otro,13,84.47,3.5,Media,Medio,No,Bajo,5,Graves,tested_negative
40990671,873,11,Masculino,6,74.13,3.57,Baja,Medio,No,Bajo,5,Ninguno,tested_negative
92309476,874,15,Femenino,3,75.62,2.31,Alta,Medio,No,Bajo,5,Ninguno,tested_negative
39841601,875,13,Femenino,20,79.12,3.2,Alta,Bajo,Sí,Medio,3,Leves,tested_negative
78512615,876,11,Otro,20,86.95,2.69,Alta,Bajo,No,Bajo,1,Graves,tested_negative
25770211,877,18,Femenino,19,100.0,4.11,Media,Alto,Sí,Alto,3,Graves,tested_negative
76718251,878,15,Femenino,12,85.25,3.5,Media,Bajo,No,Bajo,1,Graves,tested_negative
39981750,879,15,Masculino,4,81.91,2.59,Alta,Medio,Sí,Bajo,3,Ninguno,tested_negative
13837669,880,12,Femenino,12,71.12,3.5,Media,Alto,No,Bajo,3,Ninguno,tested_negative
18138779,881,16,Otro,12,78.51,3.43,Media,Alto,No,Alto,5,Leves,tested_negative
61319075,882,11,Femenino,12,90.74,3.76,Alta,Medio,No,Alto,2,Leves,tested_negative
59979008,883,13,Masculino,13,74.12,3.65,Alta,Medio,Sí,Bajo,4,Leves,tested_negative
65703318,884,16,Femenino,6,98.16,2.9,Media,Bajo,Sí,Bajo,5,Ninguno,tested_positive
20031996,885,18,Otro,13,73.42,3.74,Media,Bajo,No,Medio,5,Ninguno,tested_negative
34347247,886,17,Masculino,6,88.76,4.31,Alta,Medio,Sí,Medio,4,Ninguno,tested_negative
77618520,887,16,Masculino,21,88.21,4.58,Alta,Bajo,Sí,Medio,5,Graves,tested_negative
26103803,888,10,Otro,13,89.59,3.42,Alta,Alto,Sí,Alto,2,Graves,tested_negative
55719614,889,18,Femenino,8,93.86,4.05,Alta,Medio,No,Medio,2,Graves,tested_negative
41851590,890,15,Masculino,8,81.01,3.59,Baja,Bajo,No,Bajo,4,Ninguno,tested_negative
45477805,891,18,Otro,6,84.12,2.86,Media,Bajo,No,Medio,5,Leves,tested_negative
18778363,892,10,Otro,7,78.63,2.93,Baja,Alto,Sí,Medio,4,Graves,tested_positive
68673288,893,16,Femenino,12,80.87,3.25,Media,Alto,No,Medio,4,Graves,tested_negative
14987149,894,12,Masculino,9,91.77,3.14,Media,Medio,Sí,Bajo,4,Leves,tested_negative
43690662,895,18,Masculino,8,95.82,3.31,Baja,Medio,No,Alto,3,Graves,tested_negative
67825005,896,10,Masculino,15,81.75,2.4,Baja,Alto,No,Bajo,3,Leves,tested_negative
51290124,897,12,Femenino,21,96.0,3.98,Baja,Bajo,Sí,Bajo,3,Ninguno,tested_negative
79856411,898,12,Femenino,8,90.39,3.68,Baja,Bajo,No,Alto,3,Leves,tested_negative
48968252,899,13,Otro,2,93.16,3.48,Media,Bajo,Sí,Medio,5,Graves,tested_negative
62531406,900,17,Otro,18,66.84,3.49,Alta,Alto,No,Medio,4,Ninguno,tested_negative
87486602,901,10,Femenino,18,87.69,3.93,Media,Medio,Sí,Alto,1,Ninguno,tested_negative
96364012,902,10,Femenino,7,81.54,3.14,Alta,Bajo,No,Bajo,3,Leves,tested_negative
75626157,903,17,Otro,18,71.72,3.56,Media,Bajo,No,Alto,2,Ninguno,tested_negative
87108042,904,18,Femenino,8,80.64,3.22,Media,Medio,Sí,Alto,5,Graves,tested_negative
82355516,905,16,Femenino,18,79.69,3.6,Alta,Alto,Sí,Alto,5,Leves,tested_negative
42657975,906,17,Masculino,19,84.87,3.94,Media,Alto,Sí,Alto,3,Graves,tested_negative
31082674,907,12,Masculino,3,90.74,3.59,Baja,Bajo,Sí,Medio,5,Graves,tested_negative
70335817,908,16,Femenino,10,95.73,3.46,Alta,Alto,Sí,Medio,4,Graves,tested_negative
78385099,909,16,Femenino,22,67.32,3.3,Baja,Bajo,No,Alto,2,Graves,tested_negative
20032138,910,12,Masculino,10,86.87,3.18,Baja,Alto,Sí,Medio,1,Graves,tested_negative
72742745,911,17,Masculino,9,80.98,3.5,Baja,Bajo,Sí,Medio,4,Leves,tested_negative
85498548,912,14,Femenino,18,93.65,3.45,Baja,Alto,Sí,Bajo,1,Leves,tested_negative
27554154,913,18,Masculino,3,74.33,3.04,Baja,Medio,No,Alto,5,Graves,tested_negative
62160801,914,17,Femenino,6,54.81,2.88,Alta,Alto,No,Bajo,4,Ninguno,tested_positive
67610393,915,17,Femenino,15,74.18,3.07,Alta,Medio,Sí,Bajo,1,Leves,tested_negative
36493749,916,16,Otro,5,91.28,2.77,Media,Medio,No,Medio,1,Ninguno,tested_negative
25316853,917,15,Otro,17,94.07,3.63,Media,Alto,No,Medio,4,Leves,tested_negative
17253540,918,15,Masculino,4,75.86,2.83,Alta,Bajo,No,Medio,3,Ninguno,tested_negative
58750488,919,11,Femenino,6,69.61,2.61,Baja,Alto,No,Bajo,2,Graves,tested_positive
12445125,920,14,Otro,10,87.33,3.29,Media,Bajo,Sí,Medio,2,Ninguno,tested_negative
50810277,921,11,Masculino,20,84.05,4.11,Alta,Bajo,No,Alto,2,Ninguno,tested_negative
11865431,922,15,Masculino,17,89.92,3.95,Media,Alto,Sí,Alto,1,Ninguno,tested_negative
31998518,923,13,Femenino,14,81.33,3.51,Alta,Alto,No,Bajo,3,Leves,tested_negative
41393021,924,13,Otro,6,84.29,3.56,Alta,Bajo,Sí,Medio,3,Leves,tested_negative
83235722,925,17,Femenino,5,100.0,3.54,Media,Bajo,Sí,Alto,2,Leves,tested_negative
56617622,926,16,Masculino,5,70.09,2.86,Baja,Alto,No,Alto,4,Graves,tested_positive
30756243,927,16,Otro,15,97.58,4.14,Alta,Alto,No,Medio,2,Ninguno,tested_negative
89550487,928,16,Masculino,4,76.03,3.01,Media,Bajo,No,Bajo,5,Ninguno,tested_negative
60923202,929,18,Femenino,10,99.61,3.62,Baja,Alto,No,Alto,5,Graves,tested_negative
14343382,930,11,Masculino,17,85.93,3.54,Media,Bajo,No,Bajo,1,Ninguno,tested_negative
26537072,931,14,Masculino,18,66.6,3.41,Baja,Bajo,No,Medio,4,Graves,tested_negative
96715154,932,16,Otro,8,64.11,2.31,Baja,Medio,Sí,Bajo,3,Graves,tested_positive
88387456,933,10,Otro,3,89.41,3.36,Alta,Medio,No,Alto,1,Graves,tested_negative
55779335,934,10,Femenino,12,95.7,3.43,Baja,Bajo,No,Alto,2,Ninguno,tested_negative
34358858,935,16,Otro,26,83.22,3.87,Media,Medio,Sí,Bajo,5,Leves,tested_negative
67049103,936,15,Masculino,16,99.26,3.31,Baja,Medio,Sí,Medio,4,Ninguno,tested_negative
76273626,937,10,Masculino,8,80.79,2.52,Media,Medio,Sí,Bajo,4,Leves,tested_negative
75586382,938,13,Masculino,1,85.12,3.03,Baja,Medio,No,Bajo,5,Graves,tested_negative
37987363,939,13,Femenino,19,77.94,3.05,Media,Bajo,No,Bajo,1,Ninguno,tested_negative
31627182,940,15,Masculino,15,84.75,3.11,Alta,Alto,Sí,Bajo,4,Graves,tested_negative
25762424,941,17,Otro,5,88.71,3.36,Baja,Bajo,Sí,Bajo,2,Graves,tested_positive
45106261,942,17,Otro,17,83.77,3.36,Media,Bajo,Sí,Bajo,2,Ninguno,tested_negative
98006892,943,16,Femenino,22,88.89,4.14,Media,Medio,Sí,Medio,2,Ninguno,tested_negative
93449994,944,15,Otro,7,86.59,3.28,Alta,Medio,Sí,Bajo,5,Graves,tested_negative
87580369,945,11,Otro,12,83.14,3.32,Media,Alto,No,Alto,4,Ninguno,tested_negative
31902883,946,11,Otro,12,75.26,3.0,Media,Bajo,Sí,Alto,1,Graves,tested_negative
20437000,947,12,Otro,22,86.8,3.88,Media,Bajo,No,Medio,5,Graves,tested_negative
55263686,948,18,Femenino,14,87.08,3.73,Baja,Bajo,Sí,Alto,1,Graves,tested_negative
95675927,949,11,Otro,16,83.89,3.72,Baja,Medio,No,Bajo,5,Graves,tested_negative
20774728,950,17,Otro,3,81.9,3.52,Alta,Alto,No,Bajo,4,Leves,tested_negative
38129869,951,16,Femenino,15,94.35,2.99,Baja,Bajo,Sí,Bajo,4,Leves,tested_positive
38362257,952,16,Femenino,4,82.26,3.18,Media,Bajo,Sí,Alto,2,Ninguno,tested_negative
79406457,953,14,Femenino,3,90.46,3.27,Media,Bajo,No,Alto,1,Graves,tested_negative
21649166,954,16,Otro,15,93.32,3.32,Alta,Bajo,Sí,Medio,3,Ninguno,tested_negative
73677535,955,18,Otro,11,86.58,3.66,Baja,Medio,No,Bajo,2,Graves,tested_negative
91034252,956,11,Masculino,6,78.98,2.69,Baja,Medio,Sí,Medio,5,Ninguno,tested_positive
13861935,957,18,Otro,14,96.51,3.3,Alta,Alto,Sí,Bajo,5,Leves,tested_negative
84770368,958,17,Femenino,1,100.0,2.48,Baja,Medio,No,Medio,1,Leves,tested_negative
60843423,959,11,Femenino,9,74.67,3.04,Alta,Bajo,No,Medio,4,Ninguno,tested_negative
53920971,960,18,Otro,2,77.79,3.35,Media,Medio,No,Medio,3,Ninguno,tested_negative
83565071,961,12,Masculino,5,91.91,3.45,Alta,Medio,No,Medio,1,Graves,tested_negative
84149211,962,13,Masculino,18,92.94,4.41,Alta,Medio,Sí,Bajo,3,Ninguno,tested_negative
72362310,963,11,Masculino,9,86.23,3.87,Baja,Bajo,Sí,Medio,3,Ninguno,tested_negative
55862457,964,15,Femenino,5,92.34,3.74,Baja,Medio,Sí,Alto,2,Ninguno,tested_negative
43022101,965,16,Otro,9,95.26,2.72,Media,Medio,No,Bajo,1,Graves,tested_negative
79400463,966,13,Masculino,14,74.88,3.21,Alta,Medio,Sí,Medio,1,Graves,tested_negative
88344842,967,17,Otro,9,75.16,3.67,Alta,Alto,Sí,Bajo,3,Ninguno,tested_negative
84029775,968,12,Masculino,19,77.63,2.84,Baja,Medio,No,Bajo,3,Graves,tested_negative
60800385,969,10,Otro,15,88.5,3.12,Baja,Bajo,Sí,Medio,2,Ninguno,tested_negative
98602242,970,17,Masculino,12,76.11,3.25,Alta,Alto,No,Alto,1,Ninguno,tested_negative
81234022,971,13,Otro,11,93.12,2.88,Alta,Bajo,No,Medio,3,Ninguno,tested_negative
52137116,972,10,Otro,11,80.31,3.16,Alta,Medio,Sí,Bajo,3,Graves,tested_negative
74747947,973,16,Femenino,12,76.84,3.0,Alta,Alto,No,Bajo,3,Graves,tested_negative
86170201,974,13,Masculino,10,80.98,3.85,Alta,Medio,No,Alto,1,Graves,tested_negative
44244782,975,11,Otro,6,95.28,3.15,Baja,Bajo,No,Medio,5,Graves,tested_negative
10520852,976,10,Otro,6,94.29,3.78,Alta,Bajo,Sí,Alto,1,Graves,tested_negative
61243613,977,17,Otro,5,65.01,2.98,Baja,Medio,Sí,Bajo,2,Ninguno,tested_positive
73699636,978,12,Femenino,8,69.07,3.64,Alta,Alto,No,Medio,5,Leves,tested_negative
72089695,979,15,Otro,15,69.37,3.51,Alta,Medio,No,Alto,5,Ninguno,tested_negative
96503136,980,11,Otro,31,98.49,3.49,Media,Medio,No,Bajo,5,Leves,tested_negative
87156369,981,17,Masculino,24,86.98,4.43,Media,Bajo,No,Alto,5,Leves,tested_negative
51403238,982,12,Femenino,3,98.98,3.85,Alta,Bajo,Sí,Alto,4,Graves,tested_negative
75028465,983,13,Masculino,10,61.66,2.85,Baja,Medio,Sí,Medio,1,Ninguno,tested_positive
17354302,984,18,Masculino,4,89.22,3.51,Media,Bajo,No,Medio,2,Graves,tested_negative
77619068,985,16,Femenino,9,91.02,3.55,Alta,Bajo,Sí,Bajo,3,Leves,tested_negative
64915127,986,18,Otro,12,74.62,3.36,Media,Bajo,No,Medio,4,Ninguno,tested_negative
43489123,987,15,Femenino,6,92.59,3.56,Baja,Medio,Sí,Bajo,1,Graves,tested_negative
87658046,988,14,Masculino,4,67.04,2.93,Media,Medio,No,Medio,5,Leves,tested_negative
53912825,989,14,Masculino,2,100.0,3.9,Media,Alto,Sí,Bajo,5,Leves,tested_negative
47683437,990,12,Masculino,10,79.19,3.14,Alta,Alto,No,Medio,3,Graves,tested_negative
92885679,991,12,Otro,13,95.4,3.81,Media,Alto,Sí,Bajo,5,Leves,tested_negative
19921522,992,17,Femenino,19,66.41,3.3,Alta,Alto,No,Alto,3,Graves,tested_negative
35591621,993,12,Masculino,21,90.83,3.53,Alta,Medio,Sí,Alto,3,Graves,tested_negative
63364346,994,17,Femenino,17,70.26,2.8,Media,Medio,No,Alto,5,Ninguno,tested_negative
60782238,995,13,Masculino,10,67.12,2.68,Baja,Bajo,No,Medio,5,Graves,tested_positive
56911817,996,18,Otro,26,95.73,4.34,Alta,Alto,Sí,Bajo,2,Ninguno,tested_negative
93454081,997,15,Otro,22,98.16,3.57,Media,Alto,Sí,Alto,3,Graves,tested_negative
98187814,998,18,Femenino,5,66.96,2.05,Alta,Bajo,Sí,Alto,4,Graves,tested_positive
89472972,999,13,Femenino,7,86.66,2.91,Media,Bajo,No,Alto,4,Leves,tested_negative
46510222,1000,14,Femenino,12,86.62,2.73,Baja,Alto,No,Bajo,3,Graves,tested_positive
